LAMMPS data file generated with LigParGen (israel.cabezadevaca@yale.edu)

      19 atoms
      18 bonds
      31 angles
      34 dihedrals
       2 impropers

      19 atom types
      18 bond types
      31 angle types
      34 dihedral types
       2 improper types

   -4.365000    45.635000 xlo xhi
   -1.497000    48.503000 ylo yhi
   -1.157000    48.843000 zlo zhi

Masses

       1     15.999
       2     12.011
       3     12.011
       4     12.011
       5     12.011
       6     12.011
       7     12.011
       8      1.008
       9      1.008
      10      1.008
      11      1.008
      12      1.008
      13      1.008
      14      1.008
      15      1.008
      16      1.008
      17      1.008
      18      1.008
      19      1.008

Pair Coeffs

       1      0.140  2.9000000
       2      0.066  3.5000000
       3      0.066  3.5000000
       4      0.066  3.5000000
       5      0.066  3.5000000
       6      0.076  3.5500000
       7      0.076  3.5500000
       8      0.030  2.5000000
       9      0.030  2.5000000
      10      0.030  2.5000000
      11      0.030  2.5000000
      12      0.030  2.5000000
      13      0.030  2.5000000
      14      0.030  2.5000000
      15      0.030  2.5000000
      16      0.030  2.5000000
      17      0.030  2.5000000
      18      0.030  2.5000000
      19      0.030  2.5000000

Bond Coeffs

       1   320.0000     1.4100
       2   320.0000     1.4100
       3   268.0000     1.5290
       4   268.0000     1.5290
       5   317.0000     1.5100
       6   549.0000     1.3400
       7   340.0000     1.0800
       8   340.0000     1.0800
       9   340.0000     1.0800
      10   340.0000     1.0900
      11   340.0000     1.0900
      12   340.0000     1.0900
      13   340.0000     1.0900
      14   340.0000     1.0900
      15   340.0000     1.0900
      16   340.0000     1.0900
      17   340.0000     1.0900
      18   340.0000     1.0900

Angle Coeffs

       1     60.000    109.500
       2     50.000    109.500
       3     58.350    112.700
       4     50.000    109.500
       5     70.000    124.000
       6     35.000    120.000
       7     35.000    120.000
       8     35.000    117.000
       9     35.000    109.500
      10     35.000    109.500
      11     35.000    109.500
      12     35.000    109.500
      13     37.500    110.700
      14     37.500    110.700
      15     37.500    110.700
      16     37.500    110.700
      17     37.500    110.700
      18     37.500    110.700
      19     37.500    110.700
      20     37.500    110.700
      21     37.500    110.700
      22     35.000    109.500
      23     35.000    109.500
      24     35.000    120.000
      25     35.000    117.000
      26     33.000    107.800
      27     33.000    107.800
      28     33.000    107.800
      29     33.000    107.800
      30     33.000    107.800
      31     33.000    107.800

Dihedral Coeffs

       1      0.650     -0.250      0.670      0.000
       2      1.711     -0.500      0.663      0.000
       3      0.650     -0.250      0.670      0.000
       4      0.500      0.000      0.000      0.000
       5      0.000     14.000      0.000      0.000
       6      0.000     14.000      0.000      0.000
       7      0.000      0.000      0.468      0.000
       8      0.000      0.000      0.760      0.000
       9      0.000      0.000      0.760      0.000
      10      0.000      0.000      0.760      0.000
      11      0.000      0.000      0.760      0.000
      12      0.000      0.000      0.468      0.000
      13      0.000      0.000      0.468      0.000
      14      0.000      0.000      0.300      0.000
      15      0.000      0.000      0.300      0.000
      16      0.000      0.000      0.300      0.000
      17      0.000      0.000      0.300      0.000
      18      0.000      0.000      0.300      0.000
      19      0.000      0.000     -0.372      0.000
      20      0.000      0.000     -0.372      0.000
      21      0.000     14.000      0.000      0.000
      22      0.000     14.000      0.000      0.000
      23      0.000      0.000      0.318      0.000
      24      0.000      0.000      0.318      0.000
      25      0.000      0.000      0.300      0.000
      26      0.000      0.000      0.300      0.000
      27      0.000      0.000      0.300      0.000
      28      0.000      0.000      0.300      0.000
      29      0.000      0.000      0.300      0.000
      30      0.000      0.000      0.300      0.000
      31      0.000      0.000      0.300      0.000
      32      0.000      0.000      0.300      0.000
      33      0.000      0.000      0.300      0.000
      34      0.000      0.000      0.300      0.000

Improper Coeffs

       1      2.500      -1       2
       2      2.500      -1       2

Atoms

     1      1      1  -0.355149 -0.60400  0.45000  1.08000
     2      1      2   0.032969 -1.19100  0.48600 -0.15800
     3      1      3   0.017618  0.75800  0.58600  1.09800
     4      1      4  -0.237433  1.48000 -0.48700  0.33200
     5      1      5  -0.244231  2.99900 -0.27200  0.40600
     6      1      6  -0.183703 -2.68500  0.33800 -0.01500
     7      1      7  -0.234149 -3.30200 -0.67100 -0.58900
     8      1      8   0.129091 -2.73500 -1.38400 -1.15700
     9      1      9   0.129091 -4.36500 -0.80000 -0.50300
    10      1     10   0.150864 -3.18000  1.09600  0.57300
    11      1     11   0.072223 -0.80300 -0.39300 -0.75200
    12      1     12   0.072223 -0.99600  1.38100 -0.75000
    13      1     13   0.092023  1.04500  1.59600  0.71400
    14      1     14   0.092023  1.08200  0.59600  2.17100
    15      1     15   0.101673  1.21000 -0.40700 -0.74800
    16      1     16   0.101673  1.26800 -1.49700  0.71500
    17      1     17   0.087732  3.43800 -0.69700 -0.52000
    18      1     18   0.087732  3.18400  0.83600  0.39600
    19      1     19   0.087730  3.39900 -0.75700  1.31400

Bonds

     1      1      2      1
     2      2      3      1
     3      3      4      3
     4      4      5      4
     5      5      6      2
     6      6      7      6
     7      7      8      7
     8      8      9      7
     9      9     10      6
    10     10     11      2
    11     11     12      2
    12     12     13      3
    13     13     14      3
    14     14     15      4
    15     15     16      4
    16     16     17      5
    17     17     18      5
    18     18     19      5

Angles

     1      1      3      1      2
     2      2      4      3      1
     3      3      5      4      3
     4      4      6      2      1
     5      5      7      6      2
     6      6      8      7      6
     7      7      9      7      6
     8      8     10      6      2
     9      9     11      2      1
    10     10     12      2      1
    11     11     13      3      1
    12     12     14      3      1
    13     13     15      4      3
    14     14     16      4      3
    15     15     17      5      4
    16     16     18      5      4
    17     17     19      5      4
    18     18     13      3      4
    19     19     14      3      4
    20     20     15      4      5
    21     21     16      4      5
    22     22     11      2      6
    23     23     12      2      6
    24     24     10      6      7
    25     25      9      7      8
    26     26     12      2     11
    27     27     14      3     13
    28     28     16      4     15
    29     29     18      5     17
    30     30     19      5     17
    31     31     19      5     18

Dihedrals

     1      1      4      3      1      2
     2      2      5      4      3      1
     3      3      6      2      1      3
     4      4      7      6      2      1
     5      5      8      7      6      2
     6      6      9      7      6      2
     7      7     10      6      2      1
     8      8     11      2      1      3
     9      9     12      2      1      3
    10     10     13      3      1      2
    11     11     14      3      1      2
    12     12     15      4      3      1
    13     13     16      4      3      1
    14     14     17      5      4      3
    15     15     18      5      4      3
    16     16     19      5      4      3
    17     17     13      3      4      5
    18     18     14      3      4      5
    19     19     11      2      6      7
    20     20     12      2      6      7
    21     21     10      6      7      8
    22     22     10      6      7      9
    23     23     11      2      6     10
    24     24     12      2      6     10
    25     25     15      4      3     13
    26     26     16      4      3     13
    27     27     15      4      3     14
    28     28     16      4      3     14
    29     29     17      5      4     15
    30     30     18      5      4     15
    31     31     19      5      4     15
    32     32     17      5      4     16
    33     33     18      5      4     16
    34     34     19      5      4     16

Impropers

     1      1      2      6      7     10
     2      2      6      7      8      9


