ITEM: TIMESTEP
0
ITEM: NUMBER OF ATOMS
4997
ITEM: BOX BOUNDS pp pp pp
0.0000000000000000e+00 5.1985757000000000e+01
0.0000000000000000e+00 5.1985757000000000e+01
0.0000000000000000e+00 5.1985757000000000e+01
ITEM: ATOMS id mol type x y z mass q
1 1 4 39.312 40.149 9.238 15.999 -0.35515
2 1 2 39.456 41.107 8.269 12.011 0.03297
3 1 2 39.459 38.853 8.823 12.011 0.01762
4 1 2 38.469 38.443 7.769 12.011 -0.23743
5 1 2 38.691 36.979 7.362 12.011 -0.24423
6 1 3 39.281 42.475 8.878 12.011 -0.1837
7 1 3 38.323 43.266 8.448 12.011 -0.23415
8 1 1 37.671 42.931 7.664 1.008 0.12909
9 1 1 38.176 44.246 8.864 1.008 0.12909
10 1 1 39.976 42.735 9.661 1.008 0.15086
11 1 1 38.64 40.952 7.503 1.008 0.07222
12 1 1 40.404 41.097 7.729 1.008 0.07222
13 1 1 40.503 38.686 8.459 1.008 0.09202
14 1 1 39.373 38.197 9.727 1.008 0.09202
15 1 1 38.646 39.049 6.848 1.008 0.10167
16 1 1 37.426 38.539 8.107 1.008 0.10167
17 1 1 38.358 36.875 6.309 1.008 0.08773
18 1 1 39.797 36.784 7.392 1.008 0.08773
19 1 1 38.128 36.314 8.042 1.008 0.08773
20 2 4 12.07 26.022 41.227 15.999 -0.35515
21 2 2 13.211 26.762 41.052 12.011 0.03297
22 2 2 11.841 25.571 42.499 12.011 0.01762
23 2 2 12.928 24.676 43.025 12.011 -0.23743
24 2 2 12.595 24.206 44.449 12.011 -0.24423
25 2 3 13.318 27.196 39.612 12.011 -0.1837
26 2 3 14.355 26.829 38.892 12.011 -0.23415
27 2 1 15.12 26.221 39.337 1.008 0.12909
28 2 1 14.456 27.124 37.864 1.008 0.12909
29 2 1 12.507 27.804 39.241 1.008 0.15086
30 2 1 14.094 26.099 41.29 1.008 0.07222
31 2 1 13.301 27.65 41.68 1.008 0.07222
32 2 1 11.685 26.438 43.188 1.008 0.09202
33 2 1 10.854 25.04 42.496 1.008 0.09202
34 2 1 13.874 25.263 43.108 1.008 0.10167
35 2 1 13.076 23.78 42.404 1.008 0.10167
36 2 1 13.558 24.025 44.97 1.008 0.08773
37 2 1 12.076 25.053 44.972 1.008 0.08773
38 2 1 11.972 23.295 44.403 1.008 0.08773
39 3 4 15.416 42.483 6.18 15.999 -0.35515
40 3 2 14.585 42.054 5.178 12.011 0.03297
41 3 2 15.774 41.538 7.103 12.011 0.01762
42 3 2 14.606 40.945 7.84 12.011 -0.23743
43 3 2 15.086 39.903 8.861 12.011 -0.24423
44 3 3 14.293 43.197 4.238 12.011 -0.1837
45 3 3 13.054 43.598 4.059 12.011 -0.23415
46 3 1 12.258 43.107 4.585 1.008 0.12909
47 3 1 12.818 44.409 3.395 1.008 0.12909
48 3 1 15.149 43.636 3.749 1.008 0.15086
49 3 1 13.613 41.726 5.649 1.008 0.07222
50 3 1 14.951 41.215 4.585 1.008 0.07222
51 3 1 16.371 40.731 6.611 1.008 0.09202
52 3 1 16.493 42.018 7.816 1.008 0.09202
53 3 1 13.962 40.391 7.116 1.008 0.10167
54 3 1 14.021 41.7 8.387 1.008 0.10167
55 3 1 14.272 39.16 8.983 1.008 0.08773
56 3 1 15.969 39.373 8.412 1.008 0.08773
57 3 1 15.336 40.403 9.814 1.008 0.08773
58 4 4 39.959 26.51 17.689 15.999 -0.35515
59 4 2 39.837 27.821 18.068 12.011 0.03297
60 4 2 38.792 25.795 17.632 12.011 0.01762
61 4 2 38.068 25.719 18.946 12.011 -0.23743
62 4 2 36.778 24.897 18.803 12.011 -0.24423
63 4 3 41.196 28.476 18.072 12.011 -0.1837
64 4 3 41.673 28.989 19.184 12.011 -0.23415
65 4 1 41.09 28.937 20.084 1.008 0.12909
66 4 1 42.638 29.46 19.215 1.008 0.12909
67 4 1 41.718 28.484 17.128 1.008 0.15086
68 4 1 39.431 27.842 19.122 1.008 0.07222
69 4 1 39.171 28.432 17.458 1.008 0.07222
70 4 1 38.123 26.223 16.845 1.008 0.09202
71 4 1 39.043 24.77 17.255 1.008 0.09202
72 4 1 37.747 26.745 19.245 1.008 0.10167
73 4 1 38.674 25.252 19.738 1.008 0.10167
74 4 1 36.058 25.279 19.556 1.008 0.08773
75 4 1 36.354 25.109 17.785 1.008 0.08773
76 4 1 37.002 23.826 18.951 1.008 0.08773
77 5 4 34.642 1.936 36.348 15.999 -0.35515
78 5 2 34.077 1.774 37.586 12.011 0.03297
79 5 2 36 2.105 36.331 12.011 0.01762
80 5 2 36.465 3.314 37.093 12.011 -0.23743
81 5 2 37.994 3.442 37.02 12.011 -0.24423
82 5 3 32.587 1.587 37.443 12.011 -0.1837
83 5 3 31.761 2.435 38.013 12.011 -0.23415
84 5 1 32.155 3.258 38.579 1.008 0.12909
85 5 1 30.696 2.325 37.927 1.008 0.12909
86 5 1 32.273 0.736 36.857 1.008 0.15086
87 5 1 34.259 2.72 38.177 1.008 0.07222
88 5 1 34.465 0.947 38.181 1.008 0.07222
89 5 1 36.504 1.185 36.718 1.008 0.09202
90 5 1 36.319 2.164 35.258 1.008 0.09202
91 5 1 36.219 3.18 38.173 1.008 0.10167
92 5 1 36.035 4.251 36.706 1.008 0.10167
93 5 1 38.327 3.957 37.944 1.008 0.08773
94 5 1 38.421 2.402 37.033 1.008 0.08773
95 5 1 38.277 4 36.11 1.008 0.08773
96 6 4 21.327 23.152 20.335 15.999 -0.35515
97 6 2 20.049 23.267 19.852 12.011 0.03297
98 6 2 22.328 23.418 19.44 12.011 0.01762
99 6 2 22.319 22.512 18.24 12.011 -0.23743
100 6 2 23.473 22.865 17.29 12.011 -0.24423
101 6 3 19.063 22.959 20.951 12.011 -0.1837
102 6 3 18.215 21.964 20.811 12.011 -0.23415
103 6 1 18.232 21.377 19.912 1.008 0.12909
104 6 1 17.502 21.723 21.577 1.008 0.12909
105 6 1 19.113 23.595 21.822 1.008 0.15086
106 6 1 19.917 22.501 19.032 1.008 0.07222
107 6 1 19.788 24.237 19.427 1.008 0.07222
108 6 1 22.277 24.487 19.118 1.008 0.09202
109 6 1 23.301 23.34 19.99 1.008 0.09202
110 6 1 21.38 22.684 17.662 1.008 0.10167
111 6 1 22.423 21.45 18.51 1.008 0.10167
112 6 1 23.152 22.59 16.264 1.008 0.08773
113 6 1 23.606 23.98 17.32 1.008 0.08773
114 6 1 24.385 22.324 17.597 1.008 0.08773
115 7 4 3.746 32.673 4.269 15.999 -0.35515
116 7 2 2.748 31.806 4.631 12.011 0.03297
117 7 2 3.924 32.848 2.923 12.011 0.01762
118 7 2 4.272 31.582 2.192 12.011 -0.23743
119 7 2 4.464 31.86 0.694 12.011 -0.24423
120 7 3 2.665 31.729 6.135 12.011 -0.1837
121 7 3 2.847 30.578 6.743 12.011 -0.23415
122 7 1 3.054 29.699 6.162 1.008 0.12909
123 7 1 2.794 30.494 7.813 1.008 0.12909
124 7 1 2.455 32.657 6.644 1.008 0.15086
125 7 1 3.017 30.782 4.238 1.008 0.07222
126 7 1 1.753 32.042 4.25 1.008 0.07222
127 7 1 3.012 33.316 2.476 1.008 0.09202
128 7 1 4.725 33.62 2.786 1.008 0.09202
129 7 1 3.413 30.872 2.266 1.008 0.10167
130 7 1 5.197 31.117 2.565 1.008 0.10167
131 7 1 4.197 30.931 0.149 1.008 0.08773
132 7 1 3.725 32.653 0.4 1.008 0.08773
133 7 1 5.508 32.166 0.504 1.008 0.08773
134 8 4 20.447 9.288 27.23 15.999 -0.35515
135 8 2 20.942 8.014 27.137 12.011 0.03297
136 8 2 19.827 9.771 26.109 12.011 0.01762
137 8 2 20.722 9.826 24.903 12.011 -0.23743
138 8 2 19.961 10.384 23.692 12.011 -0.24423
139 8 3 21.58 7.62 28.445 12.011 -0.1837
140 8 3 22.854 7.299 28.484 12.011 -0.23415
141 8 1 23.432 7.319 27.579 1.008 0.12909
142 8 1 23.333 7.015 29.402 1.008 0.12909
143 8 1 20.93 7.626 29.307 1.008 0.15086
144 8 1 21.741 8.009 26.338 1.008 0.07222
145 8 1 20.219 7.242 26.869 1.008 0.07222
146 8 1 18.915 9.164 25.887 1.008 0.09202
147 8 1 19.429 10.789 26.356 1.008 0.09202
148 8 1 21.023 8.787 24.626 1.008 0.10167
149 8 1 21.608 10.461 25.06 1.008 0.10167
150 8 1 20.418 9.943 22.782 1.008 0.08773
151 8 1 18.902 10.013 23.758 1.008 0.08773
152 8 1 20.02 11.487 23.692 1.008 0.08773
153 9 4 37.666 4.766 32.819 15.999 -0.35515
154 9 2 38.046 3.916 31.813 12.011 0.03297
155 9 2 37.304 6.027 32.43 12.011 0.01762
156 9 2 38.4 6.778 31.727 12.011 -0.23743
157 9 2 37.923 8.183 31.33 12.011 -0.24423
158 9 3 38.4 2.57 32.394 12.011 -0.1837
159 9 3 39.611 2.084 32.231 12.011 -0.23415
160 9 1 40.34 2.652 31.685 1.008 0.12909
161 9 1 39.89 1.128 32.634 1.008 0.12909
162 9 1 37.611 2.065 32.93 1.008 0.15086
163 9 1 38.97 4.347 31.326 1.008 0.07222
164 9 1 37.312 3.76 31.022 1.008 0.07222
165 9 1 36.392 5.979 31.784 1.008 0.09202
166 9 1 36.966 6.579 33.345 1.008 0.09202
167 9 1 38.645 6.255 30.772 1.008 0.10167
168 9 1 39.3 6.896 32.351 1.008 0.10167
169 9 1 38.49 8.481 30.425 1.008 0.08773
170 9 1 36.839 8.102 31.044 1.008 0.08773
171 9 1 38.086 8.881 32.169 1.008 0.08773
172 10 4 29.592 27.582 33.692 15.999 -0.35515
173 10 2 29.86 26.998 34.903 12.011 0.03297
174 10 2 28.69 26.925 32.899 12.011 0.01762
175 10 2 29.113 25.53 32.534 12.011 -0.23743
176 10 2 28.057 24.863 31.64 12.011 -0.24423
177 10 3 30.854 27.839 35.662 12.011 -0.1837
178 10 3 32.012 27.326 36.016 12.011 -0.23415
179 10 1 32.241 26.309 35.759 1.008 0.12909
180 10 1 32.739 27.903 36.557 1.008 0.12909
181 10 1 30.548 28.851 35.88 1.008 0.15086
182 10 1 30.326 25.988 34.706 1.008 0.07222
183 10 1 28.997 26.829 35.549 1.008 0.07222
184 10 1 27.688 26.908 33.396 1.008 0.09202
185 10 1 28.532 27.547 31.98 1.008 0.09202
186 10 1 29.166 24.911 33.462 1.008 0.10167
187 10 1 30.071 25.505 31.992 1.008 0.10167
188 10 1 28.113 23.77 31.822 1.008 0.08773
189 10 1 27.049 25.217 31.987 1.008 0.08773
190 10 1 28.252 25.117 30.583 1.008 0.08773
191 11 4 31.436 26.188 41.934 15.999 -0.35515
192 11 2 32.69 26.275 41.387 12.011 0.03297
193 11 2 30.487 25.58 41.157 12.011 0.01762
194 11 2 30.253 26.272 39.843 12.011 -0.23743
195 11 2 29.172 25.539 39.034 12.011 -0.24423
196 11 3 33.622 26.951 42.36 12.011 -0.1837
197 11 3 34.224 28.07 42.022 12.011 -0.23415
198 11 1 34.046 28.495 41.052 1.008 0.12909
199 11 1 34.892 28.573 42.696 1.008 0.12909
200 11 1 33.746 26.461 43.314 1.008 0.15086
201 11 1 32.62 26.915 40.459 1.008 0.07222
202 11 1 33.144 25.329 41.087 1.008 0.07222
203 11 1 30.762 24.51 40.988 1.008 0.09202
204 11 1 29.541 25.532 41.756 1.008 0.09202
205 11 1 31.185 26.217 39.232 1.008 0.10167
206 11 1 29.926 27.316 39.966 1.008 0.10167
207 11 1 29.388 25.715 37.96 1.008 0.08773
208 11 1 29.29 24.44 39.232 1.008 0.08773
209 11 1 28.174 25.914 39.323 1.008 0.08773
210 12 4 4.545 10.877 46.283 15.999 -0.35515
211 12 2 5.399 11.665 45.555 12.011 0.03297
212 12 2 4.646 10.986 47.643 12.011 0.01762
213 12 2 6.004 10.624 48.177 12.011 -0.23743
214 12 2 6.036 10.763 49.706 12.011 -0.24423
215 12 3 5.161 11.445 44.083 12.011 -0.1837
216 12 3 6.135 11.001 43.32 12.011 -0.23415
217 12 1 7.096 10.798 43.754 1.008 0.12909
218 12 1 5.993 10.836 42.268 1.008 0.12909
219 12 1 4.167 11.672 43.726 1.008 0.15086
220 12 1 6.456 11.346 45.795 1.008 0.07222
221 12 1 5.338 12.736 45.751 1.008 0.07222
222 12 1 4.367 12.02 47.964 1.008 0.09202
223 12 1 3.855 10.333 48.094 1.008 0.09202
224 12 1 6.754 11.353 47.786 1.008 0.10167
225 12 1 6.295 9.592 47.93 1.008 0.10167
226 12 1 7.08 11.006 49.994 1.008 0.08773
227 12 1 5.392 11.641 49.979 1.008 0.08773
228 12 1 5.687 9.824 50.172 1.008 0.08773
229 13 4 37.111 48.101 16.014 15.999 -0.35515
230 13 2 37.782 49.199 15.542 12.011 0.03297
231 13 2 37.795 46.916 15.962 12.011 0.01762
232 13 2 38.197 46.514 14.571 12.011 -0.23743
233 13 2 38.949 45.175 14.594 12.011 -0.24423
234 13 3 36.911 50.422 15.676 12.011 -0.1837
235 13 3 36.578 51.11 14.607 12.011 -0.23415
236 13 1 36.93 50.794 13.643 1.008 0.12909
237 13 1 35.959 0.000243 14.674 1.008 0.12909
238 13 1 36.599 50.671 16.679 1.008 0.15086
239 13 1 37.993 49.032 14.444 1.008 0.07222
240 13 1 38.739 49.412 16.02 1.008 0.07222
241 13 1 38.693 46.965 16.626 1.008 0.09202
242 13 1 37.146 46.132 16.432 1.008 0.09202
243 13 1 38.918 47.265 14.17 1.008 0.10167
244 13 1 37.335 46.4 13.897 1.008 0.10167
245 13 1 39.646 45.173 13.731 1.008 0.08773
246 13 1 39.566 45.15 15.533 1.008 0.08773
247 13 1 38.226 44.342 14.544 1.008 0.08773
248 14 4 16.668 7.507 28.687 15.999 -0.35515
249 14 2 16.392 8.848 28.628 12.011 0.03297
250 14 2 15.617 6.67 28.426 12.011 0.01762
251 14 2 14.464 6.836 29.375 12.011 -0.23743
252 14 2 13.332 5.86 29.024 12.011 -0.24423
253 14 3 17.643 9.637 28.925 12.011 -0.1837
254 14 3 17.671 10.461 29.949 12.011 -0.23415
255 14 1 16.801 10.566 30.568 1.008 0.12909
256 14 1 18.549 11.034 30.182 1.008 0.12909
257 14 1 18.473 9.473 28.255 1.008 0.15086
258 14 1 15.628 9.081 29.428 1.008 0.07222
259 14 1 15.983 9.207 27.683 1.008 0.07222
260 14 1 15.273 6.809 27.371 1.008 0.09202
261 14 1 16.007 5.62 28.453 1.008 0.09202
262 14 1 14.037 7.86 29.253 1.008 0.10167
263 14 1 14.748 6.653 30.423 1.008 0.10167
264 14 1 12.379 6.33 29.346 1.008 0.08773
265 14 1 13.305 5.763 27.905 1.008 0.08773
266 14 1 13.507 4.892 29.526 1.008 0.08773
267 15 4 10.314 39.457 45.532 15.999 -0.35515
268 15 2 9.467 39.376 44.458 12.011 0.03297
269 15 2 11.619 39.123 45.29 12.011 0.01762
270 15 2 11.797 37.712 44.804 12.011 -0.23743
271 15 2 13.284 37.409 44.563 12.011 -0.24423
272 15 3 8.077 39.785 44.875 12.011 -0.1837
273 15 3 7.081 38.936 44.76 12.011 -0.23415
274 15 1 7.265 37.954 44.368 1.008 0.12909
275 15 1 6.081 39.202 45.05 1.008 0.12909
276 15 1 7.976 40.789 45.26 1.008 0.15086
277 15 1 9.433 38.298 44.123 1.008 0.07222
278 15 1 9.746 39.971 43.587 1.008 0.07222
279 15 1 12.068 39.843 44.562 1.008 0.09202
280 15 1 12.192 39.293 46.238 1.008 0.09202
281 15 1 11.297 37.603 43.812 1.008 0.10167
282 15 1 11.418 36.965 45.518 1.008 0.10167
283 15 1 13.34 36.641 43.765 1.008 0.08773
284 15 1 13.76 38.348 44.17 1.008 0.08773
285 15 1 13.75 37.064 45.503 1.008 0.08773
286 16 4 22.936 40.877 29.65 15.999 -0.35515
287 16 2 22.973 41.476 28.417 12.011 0.03297
288 16 2 23.88 39.909 29.87 12.011 0.01762
289 16 2 23.793 38.755 28.912 12.011 -0.23743
290 16 2 24.874 37.71 29.228 12.011 -0.24423
291 16 3 21.889 42.521 28.33 12.011 -0.1837
292 16 3 20.953 42.42 27.412 12.011 -0.23415
293 16 1 20.968 41.591 26.73 1.008 0.12909
294 16 1 20.17 43.151 27.328 1.008 0.12909
295 16 1 21.946 43.321 29.053 1.008 0.15086
296 16 1 22.764 40.683 27.64 1.008 0.07222
297 16 1 23.918 41.946 28.146 1.008 0.07222
298 16 1 24.902 40.361 29.841 1.008 0.09202
299 16 1 23.762 39.559 30.929 1.008 0.09202
300 16 1 24.011 39.121 27.881 1.008 0.10167
301 16 1 22.818 38.245 28.949 1.008 0.10167
302 16 1 25.125 37.197 28.277 1.008 0.08773
303 16 1 25.789 38.265 29.571 1.008 0.08773
304 16 1 24.499 37.007 29.992 1.008 0.08773
305 17 4 19.548 38.14 46.816 15.999 -0.35515
306 17 2 20.728 37.522 47.142 12.011 0.03297
307 17 2 18.453 37.755 47.541 12.011 0.01762
308 17 2 18.133 36.292 47.417 12.011 -0.23743
309 17 2 16.891 35.94 48.249 12.011 -0.24423
310 17 3 21.837 38.057 46.272 12.011 -0.1837
311 17 3 22.506 37.242 45.487 12.011 -0.23415
312 17 1 22.256 36.198 45.471 1.008 0.12909
313 17 1 23.301 37.596 44.857 1.008 0.12909
314 17 1 22.025 39.118 46.345 1.008 0.15086
315 17 1 20.612 36.419 46.93 1.008 0.07222
316 17 1 21.04 37.615 48.182 1.008 0.07222
317 17 1 18.592 38.031 48.616 1.008 0.09202
318 17 1 17.588 38.383 47.204 1.008 0.09202
319 17 1 18.973 35.698 47.85 1.008 0.10167
320 17 1 17.934 35.989 46.377 1.008 0.10167
321 17 1 16.991 34.879 48.557 1.008 0.08773
322 17 1 16.917 36.571 49.178 1.008 0.08773
323 17 1 15.98 36.112 47.649 1.008 0.08773
324 18 4 33.599 23.255 37.623 15.999 -0.35515
325 18 2 33.345 24.574 37.896 12.011 0.03297
326 18 2 32.816 22.349 38.285 12.011 0.01762
327 18 2 32.934 22.43 39.781 12.011 -0.23743
328 18 2 32.036 21.38 40.451 12.011 -0.24423
329 18 3 34.273 25.446 37.087 12.011 -0.1837
330 18 3 35.101 26.265 37.696 12.011 -0.23415
331 18 1 35.11 26.307 38.769 1.008 0.12909
332 18 1 35.772 26.897 37.144 1.008 0.12909
333 18 1 34.201 25.343 36.015 1.008 0.15086
334 18 1 33.559 24.75 38.991 1.008 0.07222
335 18 1 32.323 24.909 37.714 1.008 0.07222
336 18 1 31.749 22.468 37.974 1.008 0.09202
337 18 1 33.098 21.328 37.919 1.008 0.09202
338 18 1 32.554 23.423 40.123 1.008 0.10167
339 18 1 33.963 22.262 40.135 1.008 0.10167
340 18 1 31.742 21.78 41.443 1.008 0.08773
341 18 1 31.104 21.287 39.829 1.008 0.08773
342 18 1 32.582 20.424 40.536 1.008 0.08773
343 19 4 44.716 25.244 50.632 15.999 -0.35515
344 19 2 44.687 26.508 50.103 12.011 0.03297
345 19 2 44.887 24.226 49.733 12.011 0.01762
346 19 2 43.802 24.152 48.695 12.011 -0.23743
347 19 2 44.057 22.983 47.732 12.011 -0.24423
348 19 3 44.508 27.517 51.21 12.011 -0.1837
349 19 3 43.461 28.312 51.21 12.011 -0.23415
350 19 1 42.74 28.237 50.418 1.008 0.12909
351 19 1 43.31 29.039 0.000243 1.008 0.12909
352 19 1 45.276 27.527 51.968 1.008 0.15086
353 19 1 43.795 26.576 49.414 1.008 0.07222
354 19 1 45.562 26.799 49.521 1.008 0.07222
355 19 1 45.887 24.315 49.242 1.008 0.09202
356 19 1 44.948 23.269 50.314 1.008 0.09202
357 19 1 43.831 25.077 48.071 1.008 0.10167
358 19 1 42.803 24.008 49.135 1.008 0.10167
359 19 1 43.606 23.256 46.755 1.008 0.08773
360 19 1 45.168 22.903 47.586 1.008 0.08773
361 19 1 43.62 22.058 48.146 1.008 0.08773
362 20 4 39.2 27.959 30.182 15.999 -0.35515
363 20 2 39.179 29.24 30.666 12.011 0.03297
364 20 2 39.532 27.826 28.86 12.011 0.01762
365 20 2 38.593 28.542 27.93 12.011 -0.23743
366 20 2 39.024 28.34 26.47 12.011 -0.24423
367 20 3 38.813 29.223 32.129 12.011 -0.1837
368 20 3 37.739 29.857 32.544 12.011 -0.23415
369 20 1 37.129 30.384 31.835 1.008 0.12909
370 20 1 37.455 29.861 33.58 1.008 0.12909
371 20 1 39.478 28.67 32.775 1.008 0.15086
372 20 1 38.38 29.81 30.107 1.008 0.07222
373 20 1 40.106 29.804 30.557 1.008 0.07222
374 20 1 40.581 28.174 28.694 1.008 0.09202
375 20 1 39.564 26.73 28.628 1.008 0.09202
376 20 1 38.657 29.639 28.121 1.008 0.10167
377 20 1 37.554 28.189 28.022 1.008 0.10167
378 20 1 38.688 29.231 25.9 1.008 0.08773
379 20 1 40.147 28.322 26.448 1.008 0.08773
380 20 1 38.581 27.407 26.077 1.008 0.08773
381 21 4 35.126 23.253 36.035 15.999 -0.35515
382 21 2 36.437 23.098 36.402 12.011 0.03297
383 21 2 34.81 22.849 34.766 12.011 0.01762
384 21 2 35.568 23.583 33.695 12.011 -0.23743
385 21 2 35.154 23.082 32.303 12.011 -0.24423
386 21 3 36.626 23.571 37.821 12.011 -0.1837
387 21 3 37.46 24.553 38.079 12.011 -0.23415
388 21 1 38.003 25.012 37.275 1.008 0.12909
389 21 1 37.613 24.91 39.081 1.008 0.12909
390 21 1 36.042 23.059 38.571 1.008 0.15086
391 21 1 37.067 23.747 35.725 1.008 0.07222
392 21 1 36.833 22.084 36.329 1.008 0.07222
393 21 1 34.969 21.747 34.666 1.008 0.09202
394 21 1 33.705 22.982 34.634 1.008 0.09202
395 21 1 36.655 23.352 33.795 1.008 0.10167
396 21 1 35.395 24.67 33.722 1.008 0.10167
397 21 1 36.025 23.221 31.63 1.008 0.08773
398 21 1 34.957 21.98 32.386 1.008 0.08773
399 21 1 34.268 23.643 31.955 1.008 0.08773
400 22 4 22.858 5.553 20.813 15.999 -0.35515
401 22 2 22.26 6.533 21.562 12.011 0.03297
402 22 2 24.157 5.789 20.451 12.011 0.01762
403 22 2 24.335 7.028 19.619 12.011 -0.23743
404 22 2 25.813 7.219 19.247 12.011 -0.24423
405 22 3 20.846 6.127 21.892 12.011 -0.1837
406 22 3 19.839 6.873 21.495 12.011 -0.23415
407 22 1 20.033 7.77 20.937 1.008 0.12909
408 22 1 18.822 6.607 21.716 1.008 0.12909
409 22 1 20.737 5.212 22.454 1.008 0.15086
410 22 1 22.222 7.473 20.936 1.008 0.07222
411 22 1 22.763 6.791 22.494 1.008 0.07222
412 22 1 24.803 5.837 21.362 1.008 0.09202
413 22 1 24.524 4.884 19.9 1.008 0.09202
414 22 1 24.054 7.919 20.23 1.008 0.10167
415 22 1 23.757 6.997 18.683 1.008 0.10167
416 22 1 25.984 8.308 19.124 1.008 0.08773
417 22 1 26.429 6.871 20.119 1.008 0.08773
418 22 1 26.038 6.658 18.322 1.008 0.08773
419 23 4 43.97 14.467 8.392 15.999 -0.35515
420 23 2 44.638 14.203 7.224 12.011 0.03297
421 23 2 42.93 13.627 8.686 12.011 0.01762
422 23 2 41.844 13.626 7.648 12.011 -0.23743
423 23 2 40.713 12.669 8.053 12.011 -0.24423
424 23 3 45.756 15.199 7.045 12.011 -0.1837
425 23 3 45.774 15.983 5.989 12.011 -0.23415
426 23 1 44.988 15.907 5.261 1.008 0.12909
427 23 1 46.558 16.7 5.837 1.008 0.12909
428 23 1 46.505 15.212 7.822 1.008 0.15086
429 23 1 43.909 14.331 6.371 1.008 0.07222
430 23 1 45.06 13.202 7.135 1.008 0.07222
431 23 1 43.314 12.589 8.846 1.008 0.09202
432 23 1 42.525 13.929 9.687 1.008 0.09202
433 23 1 42.256 13.228 6.69 1.008 0.10167
434 23 1 41.399 14.622 7.499 1.008 0.10167
435 23 1 40.242 12.3 7.118 1.008 0.08773
436 23 1 41.183 11.789 8.569 1.008 0.08773
437 23 1 39.991 13.199 8.698 1.008 0.08773
438 24 4 35.592 14.467 15.939 15.999 -0.35515
439 24 2 34.686 15.07 15.106 12.011 0.03297
440 24 2 35.618 13.099 15.9 12.011 0.01762
441 24 2 34.31 12.461 16.277 12.011 -0.23743
442 24 2 34.42 10.93 16.218 12.011 -0.24423
443 24 3 34.784 16.568 15.251 12.011 -0.1837
444 24 3 33.738 17.259 15.646 12.011 -0.23415
445 24 1 32.818 16.749 15.863 1.008 0.12909
446 24 1 33.781 18.327 15.757 1.008 0.12909
447 24 1 35.744 17.003 15.015 1.008 0.15086
448 24 1 33.651 14.75 15.428 1.008 0.07222
449 24 1 34.779 14.827 14.047 1.008 0.07222
450 24 1 35.94 12.753 14.887 1.008 0.09202
451 24 1 36.439 12.757 16.582 1.008 0.09202
452 24 1 33.537 12.743 15.523 1.008 0.10167
453 24 1 33.983 12.732 17.293 1.008 0.10167
454 24 1 33.411 10.535 15.981 1.008 0.08773
455 24 1 35.1 10.673 15.361 1.008 0.08773
456 24 1 34.798 10.548 17.183 1.008 0.08773
457 25 4 19.752 17.289 28.135 15.999 -0.35515
458 25 2 19.835 16.453 29.218 12.011 0.03297
459 25 2 19.804 18.628 28.411 12.011 0.01762
460 25 2 18.695 19.101 29.309 12.011 -0.23743
461 25 2 18.815 20.611 29.564 12.011 -0.24423
462 25 3 19.778 15.018 28.757 12.011 -0.1837
463 25 3 18.814 14.231 29.18 12.011 -0.23415
464 25 1 18.072 14.617 29.854 1.008 0.12909
465 25 1 18.75 13.205 28.868 1.008 0.12909
466 25 1 20.56 14.709 28.08 1.008 0.15086
467 25 1 18.939 16.649 29.878 1.008 0.07222
468 25 1 20.721 16.571 29.843 1.008 0.07222
469 25 1 20.797 18.888 28.852 1.008 0.09202
470 25 1 19.784 19.175 27.433 1.008 0.09202
471 25 1 18.801 18.611 30.306 1.008 0.10167
472 25 1 17.697 18.914 28.885 1.008 0.10167
473 25 1 18.372 20.814 30.561 1.008 0.08773
474 25 1 19.91 20.858 29.619 1.008 0.08773
475 25 1 18.299 21.166 28.761 1.008 0.08773
476 26 4 4.698 48.542 39.524 15.999 -0.35515
477 26 2 4.975 48.753 38.199 12.011 0.03297
478 26 2 5.032 49.563 40.373 12.011 0.01762
479 26 2 6.497 49.897 40.366 12.011 -0.23743
480 26 2 6.793 51.042 41.346 12.011 -0.24423
481 26 3 4.543 47.554 37.393 12.011 -0.1837
482 26 3 5.427 46.883 36.689 12.011 -0.23415
483 26 1 6.454 47.195 36.693 1.008 0.12909
484 26 1 5.146 46.025 36.107 1.008 0.12909
485 26 1 3.493 47.305 37.444 1.008 0.15086
486 26 1 6.094 48.867 38.091 1.008 0.07222
487 26 1 4.521 49.639 37.754 1.008 0.07222
488 26 1 4.426 50.471 40.132 1.008 0.09202
489 26 1 4.695 49.271 41.401 1.008 0.09202
490 26 1 6.778 50.277 39.355 1.008 0.10167
491 26 1 7.128 49.042 40.653 1.008 0.10167
492 26 1 7.678 51.588 40.959 1.008 0.08773
493 26 1 5.917 51.745 41.318 1.008 0.08773
494 26 1 6.969 50.631 42.355 1.008 0.08773
495 27 4 36.371 4.241 41.438 15.999 -0.35515
496 27 2 36.798 4.393 42.731 12.011 0.03297
497 27 2 35.45 3.25 41.227 12.011 0.01762
498 27 2 35.944 1.881 41.6 12.011 -0.23743
499 27 2 34.862 0.825 41.327 12.011 -0.24423
500 27 3 37.793 5.524 42.807 12.011 -0.1837
501 27 3 39.016 5.294 43.231 12.011 -0.23415
502 27 1 39.297 4.3 43.521 1.008 0.12909
503 27 1 39.744 6.082 43.294 1.008 0.12909
504 27 1 37.431 6.492 42.496 1.008 0.15086
505 27 1 37.321 3.44 43.038 1.008 0.07222
506 27 1 36.018 4.58 43.47 1.008 0.07222
507 27 1 34.505 3.485 41.777 1.008 0.09202
508 27 1 35.156 3.287 40.146 1.008 0.09202
509 27 1 36.134 1.85 42.699 1.008 0.10167
510 27 1 36.844 1.587 41.038 1.008 0.10167
511 27 1 35.021 51.9818 42.047 1.008 0.08773
512 27 1 33.868 1.294 41.557 1.008 0.08773
513 27 1 34.933 0.483 40.279 1.008 0.08773
514 28 4 21.16 4.292 10.123 15.999 -0.35515
515 28 2 20.688 5.154 11.078 12.011 0.03297
516 28 2 20.539 3.074 10.06 12.011 0.01762
517 28 2 20.639 2.281 11.333 12.011 -0.23743
518 28 2 19.928 0.928 11.182 12.011 -0.24423
519 28 3 21.457 6.45 11.016 12.011 -0.1837
520 28 3 22.135 6.861 12.064 12.011 -0.23415
521 28 1 22.135 6.269 12.96 1.008 0.12909
522 28 1 22.692 7.78 12.047 1.008 0.12909
523 28 1 21.407 6.984 10.079 1.008 0.15086
524 28 1 20.867 4.684 12.089 1.008 0.07222
525 28 1 19.625 5.39 11.021 1.008 0.07222
526 28 1 19.468 3.207 9.77 1.008 0.09202
527 28 1 20.989 2.509 9.203 1.008 0.09202
528 28 1 20.097 2.825 12.143 1.008 0.10167
529 28 1 21.68 2.079 11.626 1.008 0.10167
530 28 1 19.569 0.629 12.189 1.008 0.08773
531 28 1 19.027 1.09 10.531 1.008 0.08773
532 28 1 20.627 0.187 10.755 1.008 0.08773
533 29 4 42.018 34.493 34.453 15.999 -0.35515
534 29 2 43.265 34.841 34.905 12.011 0.03297
535 29 2 40.968 35.14 35.045 12.011 0.01762
536 29 2 40.882 34.915 36.529 12.011 -0.23743
537 29 2 39.677 35.662 37.119 12.011 -0.24423
538 29 3 44.313 34.06 34.152 12.011 -0.1837
539 29 3 45.13 33.262 34.804 12.011 -0.23415
540 29 1 45.045 33.174 35.871 1.008 0.12909
541 29 1 45.885 32.695 34.293 1.008 0.12909
542 29 1 44.331 34.204 33.083 1.008 0.15086
543 29 1 43.329 34.56 35.997 1.008 0.07222
544 29 1 43.518 35.899 34.833 1.008 0.07222
545 29 1 41.019 36.234 34.822 1.008 0.09202
546 29 1 40.03 34.798 34.536 1.008 0.09202
547 29 1 41.785 35.354 37.016 1.008 0.10167
548 29 1 40.774 33.851 36.791 1.008 0.10167
549 29 1 39.927 35.913 38.17 1.008 0.08773
550 29 1 39.568 36.627 36.553 1.008 0.08773
551 29 1 38.776 35.029 37.047 1.008 0.08773
552 30 4 25.238 30.311 46.128 15.999 -0.35515
553 30 2 24.904 29.985 44.84 12.011 0.03297
554 30 2 25.227 29.278 47.026 12.011 0.01762
555 30 2 23.885 28.616 47.165 12.011 -0.23743
556 30 2 23.95 27.476 48.193 12.011 -0.24423
557 30 3 24.974 31.216 43.971 12.011 -0.1837
558 30 3 23.899 31.635 43.339 12.011 -0.23415
559 30 1 22.978 31.095 43.447 1.008 0.12909
560 30 1 23.922 32.509 42.715 1.008 0.12909
561 30 1 25.936 31.702 43.917 1.008 0.15086
562 30 1 23.838 29.612 44.841 1.008 0.07222
563 30 1 25.512 29.209 44.374 1.008 0.07222
564 30 1 26.004 28.524 46.749 1.008 0.09202
565 30 1 25.574 29.684 48.012 1.008 0.09202
566 30 1 23.613 28.138 46.193 1.008 0.10167
567 30 1 23.099 29.314 47.491 1.008 0.10167
568 30 1 23.186 26.726 47.903 1.008 0.08773
569 30 1 24.96 26.993 48.097 1.008 0.08773
570 30 1 23.771 27.879 49.205 1.008 0.08773
571 31 4 4.737 38.227 11.953 15.999 -0.35515
572 31 2 4.309 38.004 13.236 12.011 0.03297
573 31 2 6.079 38.453 11.803 12.011 0.01762
574 31 2 6.574 39.656 12.557 12.011 -0.23743
575 31 2 8.081 39.848 12.333 12.011 -0.24423
576 31 3 2.821 37.759 13.238 12.011 -0.1837
577 31 3 2.027 38.555 13.92 12.011 -0.23415
578 31 1 2.446 39.375 14.471 1.008 0.12909
579 31 1 0.963 38.403 13.938 1.008 0.12909
580 31 1 2.481 36.915 12.658 1.008 0.15086
581 31 1 4.516 38.937 13.838 1.008 0.07222
582 31 1 4.788 37.175 13.758 1.008 0.07222
583 31 1 6.654 37.543 12.104 1.008 0.09202
584 31 1 6.283 38.559 10.706 1.008 0.09202
585 31 1 6.446 39.477 13.651 1.008 0.10167
586 31 1 6.071 40.585 12.25 1.008 0.10167
587 31 1 8.488 40.347 13.237 1.008 0.08773
588 31 1 8.546 38.828 12.266 1.008 0.08773
589 31 1 8.248 40.447 11.42 1.008 0.08773
590 32 4 41.398 46.16 5.144 15.999 -0.35515
591 32 2 40.737 45.407 6.079 12.011 0.03297
592 32 2 41.811 47.397 5.559 12.011 0.01762
593 32 2 40.687 48.29 6.004 12.011 -0.23743
594 32 2 41.228 49.658 6.445 12.011 -0.24423
595 32 3 40.358 44.075 5.481 12.011 -0.1837
596 32 3 39.094 43.723 5.411 12.011 -0.23415
597 32 1 38.338 44.389 5.782 1.008 0.12909
598 32 1 38.797 42.78 4.99 1.008 0.12909
599 32 1 41.178 43.466 5.13 1.008 0.15086
600 32 1 39.788 45.953 6.357 1.008 0.07222
601 32 1 41.279 45.218 7.006 1.008 0.07222
602 32 1 42.568 47.291 6.376 1.008 0.09202
603 32 1 42.381 47.864 4.714 1.008 0.09202
604 32 1 40.203 47.845 6.905 1.008 0.10167
605 32 1 39.946 48.466 5.209 1.008 0.10167
606 32 1 40.529 50.059 7.208 1.008 0.08773
607 32 1 42.218 49.484 6.945 1.008 0.08773
608 32 1 41.31 50.325 5.569 1.008 0.08773
609 33 4 44.112 1.914 30.164 15.999 -0.35515
610 33 2 44.681 1.643 28.947 12.011 0.03297
611 33 2 42.816 2.355 30.132 12.011 0.01762
612 33 2 42.635 3.634 29.363 12.011 -0.23743
613 33 2 41.162 4.068 29.38 12.011 -0.24423
614 33 3 46.095 1.158 29.145 12.011 -0.1837
615 33 3 47.097 1.823 28.614 12.011 -0.23415
616 33 1 46.899 2.709 28.041 1.008 0.12909
617 33 1 48.113 1.499 28.739 1.008 0.12909
618 33 1 46.207 0.261 29.734 1.008 0.15086
619 33 1 44.716 2.606 28.358 1.008 0.07222
620 33 1 44.156 0.912 28.33 1.008 0.07222
621 33 1 42.153 1.556 29.718 1.008 0.09202
622 33 1 42.474 2.476 31.193 1.008 0.09202
623 33 1 42.891 3.454 28.292 1.008 0.10167
624 33 1 43.23 4.464 29.774 1.008 0.10167
625 33 1 40.975 4.64 28.448 1.008 0.08773
626 33 1 40.535 3.136 29.341 1.008 0.08773
627 33 1 40.962 4.671 30.283 1.008 0.08773
628 34 4 47.919 11.193 32.331 15.999 -0.35515
629 34 2 47.308 12.222 31.662 12.011 0.03297
630 34 2 47.853 11.248 33.697 12.011 0.01762
631 34 2 48.49 12.477 34.282 12.011 -0.23743
632 34 2 48.384 12.462 35.814 12.011 -0.24423
633 34 3 47.453 12.016 30.175 12.011 -0.1837
634 34 3 48.073 12.917 29.446 12.011 -0.23415
635 34 1 48.473 13.795 29.917 1.008 0.12909
636 34 1 48.19 12.796 28.385 1.008 0.12909
637 34 1 47.025 11.108 29.781 1.008 0.15086
638 34 1 47.838 13.18 31.941 1.008 0.07222
639 34 1 46.25 12.369 31.881 1.008 0.07222
640 34 1 46.789 11.167 34.031 1.008 0.09202
641 34 1 48.338 10.319 34.096 1.008 0.09202
642 34 1 47.923 13.377 33.943 1.008 0.10167
643 34 1 49.556 12.566 34.023 1.008 0.10167
644 34 1 48.361 13.518 36.154 1.008 0.08773
645 34 1 47.398 11.995 36.08 1.008 0.08773
646 34 1 49.24 11.909 36.24 1.008 0.08773
647 35 4 38.966 16.361 24.123 15.999 -0.35515
648 35 2 39.733 17.014 25.053 12.011 0.03297
649 35 2 37.638 16.693 24.108 12.011 0.01762
650 35 2 36.933 16.415 25.406 12.011 -0.23743
651 35 2 35.45 16.803 25.308 12.011 -0.24423
652 35 3 41.165 16.556 24.939 12.011 -0.1837
653 35 3 41.755 15.987 25.967 12.011 -0.23415
654 35 1 41.21 15.853 26.882 1.008 0.12909
655 35 1 42.774 15.652 25.913 1.008 0.12909
656 35 1 41.641 16.727 23.985 1.008 0.15086
657 35 1 39.351 16.732 26.078 1.008 0.07222
658 35 1 39.721 18.103 24.997 1.008 0.07222
659 35 1 37.516 17.767 23.823 1.008 0.09202
660 35 1 37.159 16.128 23.266 1.008 0.09202
661 35 1 37.369 17.065 26.202 1.008 0.10167
662 35 1 36.981 15.355 25.696 1.008 0.10167
663 35 1 35.114 17.085 26.327 1.008 0.08773
664 35 1 35.383 17.719 24.66 1.008 0.08773
665 35 1 34.871 15.956 24.9 1.008 0.08773
666 36 4 34.618 24.63 5.305 15.999 -0.35515
667 36 2 35.109 23.46 5.824 12.011 0.03297
668 36 2 34.55 24.694 3.939 12.011 0.01762
669 36 2 35.883 24.537 3.262 12.011 -0.23743
670 36 2 35.726 24.628 1.737 12.011 -0.24423
671 36 3 35.11 23.536 7.33 12.011 -0.1837
672 36 3 36.24 23.417 7.991 12.011 -0.23415
673 36 1 37.156 23.267 7.452 1.008 0.12909
674 36 1 36.27 23.467 9.064 1.008 0.12909
675 36 1 34.149 23.689 7.796 1.008 0.15086
676 36 1 36.177 23.346 5.473 1.008 0.07222
677 36 1 34.579 22.553 5.532 1.008 0.07222
678 36 1 33.829 23.929 3.558 1.008 0.09202
679 36 1 34.08 25.675 3.67 1.008 0.09202
680 36 1 36.278 23.514 3.47 1.008 0.10167
681 36 1 36.607 25.307 3.569 1.008 0.10167
682 36 1 36.537 24.021 1.285 1.008 0.08773
683 36 1 34.747 24.147 1.469 1.008 0.08773
684 36 1 35.776 25.685 1.421 1.008 0.08773
685 37 4 17.234 49.218 15.774 15.999 -0.35515
686 37 2 18.158 48.318 16.24 12.011 0.03297
687 37 2 16.247 49.568 16.656 12.011 0.01762
688 37 2 15.411 48.407 17.116 12.011 -0.23743
689 37 2 14.324 48.88 18.093 12.011 -0.24423
690 37 3 19.181 48.042 15.167 12.011 -0.1837
691 37 3 19.342 46.819 14.713 12.011 -0.23415
692 37 1 18.74 46.024 15.111 1.008 0.12909
693 37 1 20.063 46.595 13.949 1.008 0.12909
694 37 1 19.743 48.896 14.82 1.008 0.15086
695 37 1 17.617 47.354 16.471 1.008 0.07222
696 37 1 18.689 48.61 17.146 1.008 0.07222
697 37 1 16.692 50.098 17.534 1.008 0.09202
698 37 1 15.61 50.345 16.158 1.008 0.09202
699 37 1 16.055 47.701 17.692 1.008 0.10167
700 37 1 14.909 47.89 16.284 1.008 0.10167
701 37 1 14.102 48.034 18.775 1.008 0.08773
702 37 1 14.761 49.712 18.708 1.008 0.08773
703 37 1 13.431 49.201 17.527 1.008 0.08773
704 38 4 21.157 14.207 37.275 15.999 -0.35515
705 38 2 20.901 13.676 38.513 12.011 0.03297
706 38 2 22.04 15.252 37.246 12.011 0.01762
707 38 2 21.594 16.438 38.055 12.011 -0.23743
708 38 2 22.629 17.57 37.966 12.011 -0.24423
709 38 3 19.928 12.531 38.382 12.011 -0.1837
710 38 3 18.77 12.582 39.002 12.011 -0.23415
711 38 1 18.525 13.44 39.598 1.008 0.12909
712 38 1 18.058 11.78 38.926 1.008 0.12909
713 38 1 20.25 11.707 37.764 1.008 0.15086
714 38 1 20.42 14.48 39.143 1.008 0.07222
715 38 1 21.771 13.317 39.065 1.008 0.07222
716 38 1 23.048 14.909 37.585 1.008 0.09202
717 38 1 22.191 15.537 36.173 1.008 0.09202
718 38 1 21.548 16.148 39.132 1.008 0.10167
719 38 1 20.628 16.843 37.717 1.008 0.10167
720 38 1 22.562 18.153 38.908 1.008 0.08773
721 38 1 23.646 17.096 37.927 1.008 0.08773
722 38 1 22.421 18.194 37.079 1.008 0.08773
723 39 4 47.474 12.641 15.287 15.999 -0.35515
724 39 2 48.379 13.665 15.389 12.011 0.03297
725 39 2 47.875 11.562 14.545 12.011 0.01762
726 39 2 48.19 11.9 13.115 12.011 -0.23743
727 39 2 48.622 10.642 12.347 12.011 -0.24423
728 39 3 47.803 14.767 16.242 12.011 -0.1837
729 39 3 47.643 15.971 15.738 12.011 -0.23415
730 39 1 47.924 16.16 14.72 1.008 0.12909
731 39 1 47.235 16.773 16.324 1.008 0.12909
732 39 1 47.545 14.494 17.254 1.008 0.15086
733 39 1 48.557 14.075 14.352 1.008 0.07222
734 39 1 49.354 13.397 15.797 1.008 0.07222
735 39 1 48.754 11.072 15.03 1.008 0.09202
736 39 1 47.062 10.792 14.602 1.008 0.09202
737 39 1 49.065 12.592 13.089 1.008 0.10167
738 39 1 47.331 12.336 12.582 1.008 0.10167
739 39 1 49.309 10.968 11.539 1.008 0.08773
740 39 1 49.209 9.998 13.057 1.008 0.08773
741 39 1 47.731 10.126 11.949 1.008 0.08773
742 40 4 29.596 36.157 43.379 15.999 -0.35515
743 40 2 30.045 37.448 43.476 12.011 0.03297
744 40 2 28.901 35.684 44.46 12.011 0.01762
745 40 2 29.696 35.688 45.735 12.011 -0.23743
746 40 2 28.855 35.138 46.896 12.011 -0.24423
747 40 3 30.775 37.827 42.212 12.011 -0.1837
748 40 3 32.038 38.186 42.268 12.011 -0.23415
749 40 1 32.542 38.207 43.216 1.008 0.12909
750 40 1 32.582 38.461 41.383 1.008 0.12909
751 40 1 30.198 37.779 41.301 1.008 0.15086
752 40 1 30.775 37.498 44.336 1.008 0.07222
753 40 1 29.281 38.203 43.664 1.008 0.07222
754 40 1 27.957 36.269 44.59 1.008 0.09202
755 40 1 28.552 34.649 44.211 1.008 0.09202
756 40 1 29.943 36.742 46.006 1.008 0.10167
757 40 1 30.609 35.077 45.667 1.008 0.10167
758 40 1 29.224 35.616 47.827 1.008 0.08773
759 40 1 27.795 35.475 46.735 1.008 0.08773
760 40 1 28.945 34.038 46.932 1.008 0.08773
761 41 4 16.899 36.313 28.163 15.999 -0.35515
762 41 2 17.027 37.161 29.232 12.011 0.03297
763 41 2 15.832 36.55 27.339 12.011 0.01762
764 41 2 14.502 36.45 28.032 12.011 -0.23743
765 41 2 13.358 36.72 27.043 12.011 -0.24423
766 41 3 18.248 36.784 30.034 12.011 -0.1837
767 41 3 18.121 36.435 31.296 12.011 -0.23415
768 41 1 17.147 36.421 31.746 1.008 0.12909
769 41 1 18.974 36.162 31.889 1.008 0.12909
770 41 1 19.189 36.822 29.507 1.008 0.15086
771 41 1 16.118 37.031 29.889 1.008 0.07222
772 41 1 17.097 38.222 28.991 1.008 0.07222
773 41 1 15.942 37.551 26.853 1.008 0.09202
774 41 1 15.894 35.822 26.489 1.008 0.09202
775 41 1 14.435 37.251 28.806 1.008 0.10167
776 41 1 14.33 35.459 28.478 1.008 0.10167
777 41 1 12.514 37.146 27.623 1.008 0.08773
778 41 1 13.712 37.507 26.324 1.008 0.08773
779 41 1 13.078 35.78 26.534 1.008 0.08773
780 42 4 45.934 36.203 6.872 15.999 -0.35515
781 42 2 46.742 35.989 7.958 12.011 0.03297
782 42 2 45.669 37.513 6.576 12.011 0.01762
783 42 2 44.975 38.252 7.685 12.011 -0.23743
784 42 2 44.704 39.707 7.276 12.011 -0.24423
785 42 3 46.953 34.508 8.149 12.011 -0.1837
786 42 3 46.578 33.931 9.269 12.011 -0.23415
787 42 1 46.122 34.521 10.042 1.008 0.12909
788 42 1 46.716 32.878 9.431 1.008 0.12909
789 42 1 47.416 33.987 7.325 1.008 0.15086
790 42 1 46.212 36.392 8.871 1.008 0.07222
791 42 1 47.722 36.467 7.923 1.008 0.07222
792 42 1 46.614 38.038 6.292 1.008 0.09202
793 42 1 45.052 37.528 5.64 1.008 0.09202
794 42 1 45.654 38.302 8.569 1.008 0.10167
795 42 1 44.01 37.798 7.959 1.008 0.10167
796 42 1 44.699 40.316 8.203 1.008 0.08773
797 42 1 45.57 40.048 6.646 1.008 0.08773
798 42 1 43.742 39.768 6.736 1.008 0.08773
799 43 4 23.797 45.774 20.17 15.999 -0.35515
800 43 2 23.587 46.483 19.015 12.011 0.03297
801 43 2 24.846 46.194 20.944 12.011 0.01762
802 43 2 26.174 46.132 20.243 12.011 -0.23743
803 43 2 27.297 46.609 21.175 12.011 -0.24423
804 43 3 22.398 45.914 18.282 12.011 -0.1837
805 43 3 22.545 45.439 17.065 12.011 -0.23415
806 43 1 23.513 45.459 16.602 1.008 0.12909
807 43 1 21.715 45.028 16.52 1.008 0.12909
808 43 1 21.461 45.93 18.818 1.008 0.15086
809 43 1 24.499 46.36 18.361 1.008 0.07222
810 43 1 23.426 47.554 19.139 1.008 0.07222
811 43 1 24.652 47.23 21.317 1.008 0.09202
812 43 1 24.855 45.563 21.87 1.008 0.09202
813 43 1 26.164 46.844 19.383 1.008 0.10167
814 43 1 26.429 45.116 19.906 1.008 0.10167
815 43 1 28.096 47.039 20.537 1.008 0.08773
816 43 1 26.881 47.438 21.809 1.008 0.08773
817 43 1 27.663 45.76 21.78 1.008 0.08773
818 44 4 35.956 14.751 5.524 15.999 -0.35515
819 44 2 37.159 14.246 5.947 12.011 0.03297
820 44 2 35.246 15.459 6.455 12.011 0.01762
821 44 2 34.885 14.657 7.674 12.011 -0.23743
822 44 2 34.085 15.514 8.666 12.011 -0.24423
823 44 3 37.825 13.508 4.813 12.011 -0.1837
824 44 3 38.107 12.23 4.939 12.011 -0.23415
825 44 1 37.859 11.721 5.851 1.008 0.12909
826 44 1 38.581 11.68 4.148 1.008 0.12909
827 44 1 38.039 14.092 3.931 1.008 0.15086
828 44 1 36.953 13.509 6.778 1.008 0.07222
829 44 1 37.869 14.976 6.337 1.008 0.07222
830 44 1 35.813 16.376 6.75 1.008 0.09202
831 44 1 34.326 15.853 5.951 1.008 0.09202
832 44 1 35.821 14.363 8.207 1.008 0.10167
833 44 1 34.277 13.771 7.434 1.008 0.10167
834 44 1 34.288 15.12 9.682 1.008 0.08773
835 44 1 34.494 16.559 8.615 1.008 0.08773
836 44 1 33.011 15.47 8.412 1.008 0.08773
837 45 4 22.612 24.296 42.982 15.999 -0.35515
838 45 2 22.551 24.458 44.342 12.011 0.03297
839 45 2 21.743 25.06 42.251 12.011 0.01762
840 45 2 20.298 24.804 42.575 12.011 -0.23743
841 45 2 19.387 25.689 41.711 12.011 -0.24423
842 45 3 23.57 23.566 45.005 12.011 -0.1837
843 45 3 23.18 22.646 45.859 12.011 -0.23415
844 45 1 22.135 22.538 46.079 1.008 0.12909
845 45 1 23.885 21.998 46.346 1.008 0.12909
846 45 1 24.6 23.739 44.729 1.008 0.15086
847 45 1 21.524 24.138 44.684 1.008 0.07222
848 45 1 22.706 25.475 44.706 1.008 0.07222
849 45 1 21.984 26.144 42.385 1.008 0.09202
850 45 1 21.95 24.863 41.167 1.008 0.09202
851 45 1 20.103 25.102 43.633 1.008 0.10167
852 45 1 20.004 23.757 42.403 1.008 0.10167
853 45 1 18.459 25.872 42.29 1.008 0.08773
854 45 1 19.906 26.676 41.575 1.008 0.08773
855 45 1 19.183 25.185 40.749 1.008 0.08773
856 46 4 44.995 20.77 22.488 15.999 -0.35515
857 46 2 46.293 21.031 22.133 12.011 0.03297
858 46 2 44.377 21.733 23.24 12.011 0.01762
859 46 2 45.058 22 24.553 12.011 -0.23743
860 46 2 44.304 23.082 25.34 12.011 -0.24423
861 46 3 46.83 19.893 21.302 12.011 -0.1837
862 46 3 47.879 19.217 21.717 12.011 -0.23415
863 46 1 48.346 19.482 22.646 1.008 0.12909
864 46 1 48.282 18.402 21.145 1.008 0.12909
865 46 1 46.303 19.69 20.382 1.008 0.15086
866 46 1 46.905 21.099 23.08 1.008 0.07222
867 46 1 46.456 21.958 21.581 1.008 0.07222
868 46 1 44.29 22.678 22.65 1.008 0.09202
869 46 1 43.317 21.407 23.4 1.008 0.09202
870 46 1 46.076 22.415 24.358 1.008 0.10167
871 46 1 45.115 21.104 25.191 1.008 0.10167
872 46 1 45.046 23.604 25.978 1.008 0.08773
873 46 1 43.907 23.825 24.597 1.008 0.08773
874 46 1 43.501 22.615 25.938 1.008 0.08773
875 47 4 23.339 12.195 14.701 15.999 -0.35515
876 47 2 22.769 12.43 15.925 12.011 0.03297
877 47 2 23.908 10.961 14.534 12.011 0.01762
878 47 2 25.021 10.677 15.504 12.011 -0.23743
879 47 2 25.613 9.283 15.249 12.011 -0.24423
880 47 3 22.176 13.816 15.951 12.011 -0.1837
881 47 3 22.605 14.697 16.828 12.011 -0.23415
882 47 1 23.377 14.42 17.521 1.008 0.12909
883 47 1 22.2 15.691 16.868 1.008 0.12909
884 47 1 21.407 14.014 15.22 1.008 0.15086
885 47 1 23.586 12.379 16.703 1.008 0.07222
886 47 1 21.994 11.726 16.231 1.008 0.07222
887 47 1 23.123 10.168 14.602 1.008 0.09202
888 47 1 24.275 10.898 13.477 1.008 0.09202
889 47 1 24.604 10.65 16.539 1.008 0.10167
890 47 1 25.843 11.405 15.431 1.008 0.10167
891 47 1 26.007 8.91 16.217 1.008 0.08773
892 47 1 24.769 8.609 14.94 1.008 0.08773
893 47 1 26.402 9.349 14.48 1.008 0.08773
894 48 4 43.417 21.792 6.953 15.999 -0.35515
895 48 2 42.149 21.271 6.953 12.011 0.03297
896 48 2 43.98 21.989 8.184 12.011 0.01762
897 48 2 43.207 22.94 9.055 12.011 -0.23743
898 48 2 43.905 23.116 10.412 12.011 -0.24423
899 48 3 41.671 21.099 5.533 12.011 -0.1837
900 48 3 40.593 21.731 5.123 12.011 -0.23415
901 48 1 40.061 22.366 5.805 1.008 0.12909
902 48 1 40.231 21.626 4.117 1.008 0.12909
903 48 1 42.263 20.444 4.912 1.008 0.15086
904 48 1 41.469 22.011 7.469 1.008 0.07222
905 48 1 42.028 20.316 7.467 1.008 0.07222
906 48 1 44.113 21.008 8.704 1.008 0.09202
907 48 1 45.026 22.359 8.021 1.008 0.09202
908 48 1 42.207 22.497 9.278 1.008 0.10167
909 48 1 43.101 23.938 8.603 1.008 0.10167
910 48 1 43.119 23.353 11.158 1.008 0.08773
911 48 1 44.356 22.126 10.69 1.008 0.08773
912 48 1 44.661 23.918 10.339 1.008 0.08773
913 49 4 29.938 11.036 18.215 15.999 -0.35515
914 49 2 30.841 12.008 17.87 12.011 0.03297
915 49 2 29.926 9.923 17.418 12.011 0.01762
916 49 2 29.601 10.215 15.98 12.011 -0.23743
917 49 2 29.599 8.92 15.155 12.011 -0.24423
918 49 3 30.744 13.157 18.841 12.011 -0.1837
919 49 3 30.434 14.359 18.407 12.011 -0.23415
920 49 1 30.251 14.512 17.36 1.008 0.12909
921 49 1 30.359 15.195 19.077 1.008 0.12909
922 49 1 30.942 12.919 19.875 1.008 0.15086
923 49 1 30.566 12.388 16.842 1.008 0.07222
924 49 1 31.884 11.692 17.824 1.008 0.07222
925 49 1 30.907 9.391 17.493 1.008 0.09202
926 49 1 29.187 9.203 17.856 1.008 0.09202
927 49 1 30.407 10.854 15.548 1.008 0.10167
928 49 1 28.616 10.69 15.857 1.008 0.10167
929 49 1 29.878 9.19 14.116 1.008 0.08773
930 49 1 30.407 8.256 15.566 1.008 0.08773
931 49 1 28.601 8.449 15.206 1.008 0.08773
932 50 4 36.221 44.523 49.032 15.999 -0.35515
933 50 2 35.463 44.387 50.165 12.011 0.03297
934 50 2 36.172 45.75 48.426 12.011 0.01762
935 50 2 34.793 46.146 47.98 12.011 -0.23743
936 50 2 34.82 47.525 47.304 12.011 -0.24423
937 50 3 35.63 42.995 50.722 12.011 -0.1837
938 50 3 34.584 42.207 50.842 12.011 -0.23415
939 50 1 33.617 42.562 50.542 1.008 0.12909
940 50 1 34.675 41.211 51.235 1.008 0.12909
941 50 1 36.635 42.715 50.999 1.008 0.15086
942 50 1 34.38 44.526 49.877 1.008 0.07222
943 50 1 35.673 45.097 50.966 1.008 0.07222
944 50 1 36.597 46.528 49.107 1.008 0.09202
945 50 1 36.88 45.726 47.558 1.008 0.09202
946 50 1 34.138 46.256 48.877 1.008 0.10167
947 50 1 34.358 45.433 47.263 1.008 0.10167
948 50 1 33.827 47.992 47.467 1.008 0.08773
949 50 1 35.585 48.149 47.841 1.008 0.08773
950 50 1 35.052 47.408 46.231 1.008 0.08773
951 51 4 44.901 25.67 32.649 15.999 -0.35515
952 51 2 45.618 25.564 31.486 12.011 0.03297
953 51 2 43.54 25.594 32.52 12.011 0.01762
954 51 2 42.958 26.669 31.645 12.011 -0.23743
955 51 2 41.432 26.523 31.556 12.011 -0.24423
956 51 3 47.092 25.652 31.79 12.011 -0.1837
957 51 3 47.816 26.612 31.257 12.011 -0.23415
958 51 1 47.349 27.327 30.607 1.008 0.12909
959 51 1 48.868 26.697 31.456 1.008 0.12909
960 51 1 47.484 24.895 32.453 1.008 0.15086
961 51 1 45.339 26.436 30.825 1.008 0.07222
962 51 1 45.447 24.657 30.905 1.008 0.07222
963 51 1 43.25 24.584 32.138 1.008 0.09202
964 51 1 43.1 25.638 33.55 1.008 0.09202
965 51 1 43.341 26.538 30.605 1.008 0.10167
966 51 1 43.174 27.682 32.017 1.008 0.10167
967 51 1 41.118 26.932 30.574 1.008 0.08773
968 51 1 41.197 25.424 31.56 1.008 0.08773
969 51 1 40.958 27.057 32.398 1.008 0.08773
970 52 4 41.006 8.313 32.218 15.999 -0.35515
971 52 2 41.525 8.027 30.982 12.011 0.03297
972 52 2 41.732 7.864 33.288 12.011 0.01762
973 52 2 41.905 6.371 33.313 12.011 -0.23743
974 52 2 42.719 5.944 34.544 12.011 -0.24423
975 52 3 40.628 8.595 29.912 12.011 -0.1837
976 52 3 40.076 7.794 29.026 12.011 -0.23415
977 52 1 40.27 6.74 29.073 1.008 0.12909
978 52 1 39.433 8.172 28.253 1.008 0.12909
979 52 1 40.483 9.664 29.935 1.008 0.15086
980 52 1 41.549 6.904 30.867 1.008 0.07222
981 52 1 42.539 8.387 30.798 1.008 0.07222
982 52 1 42.729 8.37 33.312 1.008 0.09202
983 52 1 41.218 8.221 34.218 1.008 0.09202
984 52 1 42.504 6.06 32.425 1.008 0.10167
985 52 1 40.945 5.833 33.347 1.008 0.10167
986 52 1 43.253 5.009 34.278 1.008 0.08773
987 52 1 43.491 6.739 34.73 1.008 0.08773
988 52 1 42.044 5.804 35.406 1.008 0.08773
989 53 4 3.719 26.787 39.292 15.999 -0.35515
990 53 2 4.487 26.685 40.423 12.011 0.03297
991 53 2 3.565 28.051 38.789 12.011 0.01762
992 53 2 2.912 29.005 39.748 12.011 -0.23743
993 53 2 2.766 30.395 39.11 12.011 -0.24423
994 53 3 4.575 25.24 40.847 12.011 -0.1837
995 53 3 4.134 24.876 42.031 12.011 -0.23415
996 53 1 3.713 25.613 42.688 1.008 0.12909
997 53 1 4.185 23.854 42.358 1.008 0.12909
998 53 1 5.01 24.563 40.128 1.008 0.15086
999 53 1 3.974 27.265 41.245 1.008 0.07222
1000 53 1 5.503 27.076 40.344 1.008 0.07222
1001 53 1 4.554 28.452 38.456 1.008 0.09202
1002 53 1 2.969 27.966 37.843 1.008 0.09202
1003 53 1 3.576 29.142 40.635 1.008 0.10167
1004 53 1 1.909 28.675 40.059 1.008 0.10167
1005 53 1 2.792 31.14 39.932 1.008 0.08773
1006 53 1 3.668 30.565 38.463 1.008 0.08773
1007 53 1 1.822 30.443 38.538 1.008 0.08773
1008 54 4 31.997 3.422 26.869 15.999 -0.35515
1009 54 2 31.38 4.643 26.786 12.011 0.03297
1010 54 2 31.651 2.512 25.907 12.011 0.01762
1011 54 2 30.187 2.17 25.902 12.011 -0.23743
1012 54 2 29.879 1.14 24.805 12.011 -0.24423
1013 54 3 31.871 5.536 27.898 12.011 -0.1837
1014 54 3 31.02 6.015 28.778 12.011 -0.23415
1015 54 1 29.979 5.765 28.698 1.008 0.12909
1016 54 1 31.342 6.653 29.58 1.008 0.12909
1017 54 1 32.931 5.737 27.908 1.008 0.15086
1018 54 1 30.271 4.482 26.924 1.008 0.07222
1019 54 1 31.508 5.177 25.843 1.008 0.07222
1020 54 1 31.965 2.884 24.901 1.008 0.09202
1021 54 1 32.274 1.595 26.07 1.008 0.09202
1022 54 1 29.601 3.083 25.641 1.008 0.10167
1023 54 1 29.847 1.747 26.86 1.008 0.10167
1024 54 1 28.829 1.303 24.485 1.008 0.08773
1025 54 1 30.544 1.37 23.929 1.008 0.08773
1026 54 1 30.039 0.12 25.197 1.008 0.08773
1027 55 4 23.887 9.189 40.637 15.999 -0.35515
1028 55 2 24.196 9.169 41.972 12.011 0.03297
1029 55 2 24.938 9.004 39.779 12.011 0.01762
1030 55 2 26.013 10.045 39.911 12.011 -0.23743
1031 55 2 27.15 9.775 38.913 12.011 -0.24423
1032 55 3 22.943 9.372 42.786 12.011 -0.1837
1033 55 3 22.849 10.4 43.6 12.011 -0.23415
1034 55 1 23.668 11.089 43.679 1.008 0.12909
1035 55 1 21.967 10.569 44.19 1.008 0.12909
1036 55 1 22.166 8.636 42.647 1.008 0.15086
1037 55 1 24.897 10.03 42.18 1.008 0.07222
1038 55 1 24.688 8.264 42.332 1.008 0.07222
1039 55 1 25.369 7.982 39.921 1.008 0.09202
1040 55 1 24.524 8.987 38.738 1.008 0.09202
1041 55 1 26.471 9.97 40.926 1.008 0.10167
1042 55 1 25.642 11.064 39.723 1.008 0.10167
1043 55 1 28.082 10.179 39.358 1.008 0.08773
1044 55 1 27.265 8.661 38.827 1.008 0.08773
1045 55 1 26.914 10.25 37.944 1.008 0.08773
1046 56 4 36.625 42.632 31.492 15.999 -0.35515
1047 56 2 35.738 43.001 32.47 12.011 0.03297
1048 56 2 37.94 42.916 31.743 12.011 0.01762
1049 56 2 38.214 44.381 31.935 12.011 -0.23743
1050 56 2 39.708 44.619 32.202 12.011 -0.24423
1051 56 3 34.34 42.614 32.059 12.011 -0.1837
1052 56 3 33.414 43.538 31.93 12.011 -0.23415
1053 56 1 33.662 44.565 32.12 1.008 0.12909
1054 56 1 32.41 43.29 31.639 1.008 0.12909
1055 56 1 34.173 41.561 31.886 1.008 0.15086
1056 56 1 35.779 44.125 32.57 1.008 0.07222
1057 56 1 35.925 42.586 33.462 1.008 0.07222
1058 56 1 38.292 42.336 32.632 1.008 0.09202
1059 56 1 38.542 42.506 30.89 1.008 0.09202
1060 56 1 37.678 44.734 32.848 1.008 0.10167
1061 56 1 37.933 44.983 31.058 1.008 0.10167
1062 56 1 39.79 45.534 32.825 1.008 0.08773
1063 56 1 40.084 43.754 32.812 1.008 0.08773
1064 56 1 40.245 44.722 31.242 1.008 0.08773
1065 57 4 39.769 7.856 13.412 15.999 -0.35515
1066 57 2 40.05 7.94 12.073 12.011 0.03297
1067 57 2 40.375 6.83 14.086 12.011 0.01762
1068 57 2 40.012 5.469 13.562 12.011 -0.23743
1069 57 2 40.721 4.373 14.371 12.011 -0.24423
1070 57 3 39.325 9.119 11.476 12.011 -0.1837
1071 57 3 38.455 8.933 10.508 12.011 -0.23415
1072 57 1 38.267 7.939 10.149 1.008 0.12909
1073 57 1 37.925 9.756 10.065 1.008 0.12909
1074 57 1 39.569 10.084 11.894 1.008 0.15086
1075 57 1 39.665 7 11.579 1.008 0.07222
1076 57 1 41.106 8.026 11.814 1.008 0.07222
1077 57 1 41.485 6.968 14.07 1.008 0.09202
1078 57 1 40.1 6.927 15.168 1.008 0.09202
1079 57 1 40.386 5.37 12.515 1.008 0.10167
1080 57 1 38.93 5.271 13.611 1.008 0.10167
1081 57 1 40.867 3.506 13.695 1.008 0.08773
1082 57 1 41.737 4.764 14.65 1.008 0.08773
1083 57 1 40.114 4.112 15.255 1.008 0.08773
1084 58 4 6.625 19.129 20.063 15.999 -0.35515
1085 58 2 5.782 18.494 19.189 12.011 0.03297
1086 58 2 7.627 18.36 20.591 12.011 0.01762
1087 58 2 7.128 17.178 21.375 12.011 -0.23743
1088 58 2 8.307 16.372 21.94 12.011 -0.24423
1089 58 3 4.746 19.468 18.686 12.011 -0.1837
1090 58 3 3.47 19.237 18.899 12.011 -0.23415
1091 58 1 3.174 18.353 19.433 1.008 0.12909
1092 58 1 2.712 19.914 18.552 1.008 0.12909
1093 58 1 5.126 20.331 18.161 1.008 0.15086
1094 58 1 5.251 17.673 19.754 1.008 0.07222
1095 58 1 6.257 18.03 18.324 1.008 0.07222
1096 58 1 8.316 18.023 19.778 1.008 0.09202
1097 58 1 8.261 19.025 21.232 1.008 0.09202
1098 58 1 6.585 16.488 20.686 1.008 0.10167
1099 58 1 6.489 17.471 22.221 1.008 0.10167
1100 58 1 7.972 15.318 22.03 1.008 0.08773
1101 58 1 9.134 16.406 21.181 1.008 0.08773
1102 58 1 8.612 16.793 22.914 1.008 0.08773
1103 59 4 25.279 38.836 18.222 15.999 -0.35515
1104 59 2 25.293 40.044 18.87 12.011 0.03297
1105 59 2 26.504 38.283 17.965 12.011 0.01762
1106 59 2 27.381 39.141 17.096 12.011 -0.23743
1107 59 2 28.73 38.452 16.845 12.011 -0.24423
1108 59 3 23.878 40.516 19.093 12.011 -0.1837
1109 59 3 23.478 41.657 18.576 12.011 -0.23415
1110 59 1 24.164 42.245 17.996 1.008 0.12909
1111 59 1 22.476 42.016 18.72 1.008 0.12909
1112 59 1 23.252 39.867 19.686 1.008 0.15086
1113 59 1 25.814 40.791 18.201 1.008 0.07222
1114 59 1 25.81 40.062 19.83 1.008 0.07222
1115 59 1 27.025 38.046 18.926 1.008 0.09202
1116 59 1 26.33 37.283 17.491 1.008 0.09202
1117 59 1 27.615 40.088 17.638 1.008 0.10167
1118 59 1 26.928 39.353 16.115 1.008 0.10167
1119 59 1 29.484 39.25 16.688 1.008 0.08773
1120 59 1 29.006 37.899 17.783 1.008 0.08773
1121 59 1 28.648 37.782 15.971 1.008 0.08773
1122 60 4 30.69 33.18 43.801 15.999 -0.35515
1123 60 2 29.853 32.923 42.747 12.011 0.03297
1124 60 2 31.781 33.958 43.52 12.011 0.01762
1125 60 2 32.691 33.365 42.481 12.011 -0.23743
1126 60 2 33.893 34.287 42.228 12.011 -0.24423
1127 60 3 28.698 32.072 43.213 12.011 -0.1837
1128 60 3 28.499 30.888 42.677 12.011 -0.23415
1129 60 1 29.162 30.536 41.91 1.008 0.12909
1130 60 1 27.684 30.262 42.99 1.008 0.12909
1131 60 1 28.081 32.499 43.988 1.008 0.15086
1132 60 1 30.436 32.339 41.975 1.008 0.07222
1133 60 1 29.444 33.798 42.241 1.008 0.07222
1134 60 1 31.451 34.979 43.208 1.008 0.09202
1135 60 1 32.331 34.128 44.482 1.008 0.09202
1136 60 1 32.143 33.3 41.512 1.008 0.10167
1137 60 1 33.085 32.38 42.775 1.008 0.10167
1138 60 1 34.219 34.124 41.18 1.008 0.08773
1139 60 1 33.528 35.347 42.312 1.008 0.08773
1140 60 1 34.695 34.06 42.951 1.008 0.08773
1141 61 4 23.496 7.737 1.559 15.999 -0.35515
1142 61 2 23.103 7.934 2.857 12.011 0.03297
1143 61 2 23.256 6.491 1.047 12.011 0.01762
1144 61 2 23.948 5.388 1.798 12.011 -0.23743
1145 61 2 23.639 4.025 1.16 12.011 -0.24423
1146 61 3 23.419 9.349 3.273 12.011 -0.1837
1147 61 3 24.23 9.57 4.283 12.011 -0.23415
1148 61 1 24.663 8.739 4.806 1.008 0.12909
1149 61 1 24.472 10.568 4.6 1.008 0.12909
1150 61 1 22.944 10.128 2.695 1.008 0.15086
1151 61 1 23.699 7.232 3.511 1.008 0.07222
1152 61 1 22.049 7.748 3.068 1.008 0.07222
1153 61 1 22.155 6.3 1.007 1.008 0.09202
1154 61 1 23.574 6.501 51.9578 1.008 0.09202
1155 61 1 23.539 5.342 2.835 1.008 0.10167
1156 61 1 25.042 5.507 1.813 1.008 0.10167
1157 61 1 23.694 3.264 1.965 1.008 0.08773
1158 61 1 22.579 4.058 0.791 1.008 0.08773
1159 61 1 24.361 3.823 0.349 1.008 0.08773
1160 62 4 32.274 48.25 15.88 15.999 -0.35515
1161 62 2 32.369 47.154 15.062 12.011 0.03297
1162 62 2 31.211 49.079 15.645 12.011 0.01762
1163 62 2 31.201 49.668 14.262 12.011 -0.23743
1164 62 2 29.987 50.591 14.079 12.011 -0.24423
1165 62 3 33.574 46.335 15.448 12.011 -0.1837
1166 62 3 34.533 46.125 14.573 12.011 -0.23415
1167 62 1 34.449 46.54 13.587 1.008 0.12909
1168 62 1 35.402 45.546 14.823 1.008 0.12909
1169 62 1 33.583 45.956 16.459 1.008 0.15086
1170 62 1 32.515 47.523 14.004 1.008 0.07222
1171 62 1 31.501 46.493 15.052 1.008 0.07222
1172 62 1 30.254 48.536 15.843 1.008 0.09202
1173 62 1 31.235 49.887 16.422 1.008 0.09202
1174 62 1 31.077 48.845 13.518 1.008 0.10167
1175 62 1 32.104 50.259 14.046 1.008 0.10167
1176 62 1 29.719 50.575 13.002 1.008 0.08773
1177 62 1 29.131 50.141 14.651 1.008 0.08773
1178 62 1 30.238 51.608 14.428 1.008 0.08773
1179 63 4 44.912 33.247 17.943 15.999 -0.35515
1180 63 2 46.012 34.061 18.001 12.011 0.03297
1181 63 2 43.726 33.82 18.315 12.011 0.01762
1182 63 2 43.72 34.324 19.731 12.011 -0.23743
1183 63 2 42.357 34.943 20.077 12.011 -0.24423
1184 63 3 47.233 33.298 17.551 12.011 -0.1837
1185 63 3 48.247 33.141 18.372 12.011 -0.23415
1186 63 1 48.199 33.559 19.359 1.008 0.12909
1187 63 1 49.128 32.601 18.077 1.008 0.12909
1188 63 1 47.201 32.908 16.544 1.008 0.15086
1189 63 1 46.163 34.367 19.078 1.008 0.07222
1190 63 1 45.955 34.98 17.415 1.008 0.07222
1191 63 1 43.463 34.646 17.609 1.008 0.09202
1192 63 1 42.919 33.057 18.161 1.008 0.09202
1193 63 1 44.466 35.149 19.827 1.008 0.10167
1194 63 1 43.919 33.528 20.466 1.008 0.10167
1195 63 1 42.534 35.721 20.847 1.008 0.08773
1196 63 1 41.975 35.455 19.153 1.008 0.08773
1197 63 1 41.671 34.155 20.435 1.008 0.08773
1198 64 4 28.965 6.145 2.998 15.999 -0.35515
1199 64 2 28.606 5.536 4.173 12.011 0.03297
1200 64 2 29.151 7.5 3.062 12.011 0.01762
1201 64 2 27.926 8.256 3.494 12.011 -0.23743
1202 64 2 28.21 9.765 3.533 12.011 -0.24423
1203 64 3 28.452 4.053 3.947 12.011 -0.1837
1204 64 3 27.295 3.472 4.175 12.011 -0.23415
1205 64 1 26.466 4.06 4.521 1.008 0.12909
1206 64 1 27.158 2.417 4.023 1.008 0.12909
1207 64 1 29.332 3.534 3.598 1.008 0.15086
1208 64 1 27.605 5.953 4.488 1.008 0.07222
1209 64 1 29.29 5.68 5.01 1.008 0.07222
1210 64 1 30.01 7.734 3.739 1.008 0.09202
1211 64 1 29.494 7.841 2.052 1.008 0.09202
1212 64 1 27.669 7.964 4.541 1.008 0.10167
1213 64 1 27.07 8.096 2.821 1.008 0.10167
1214 64 1 27.544 10.206 4.303 1.008 0.08773
1215 64 1 29.271 9.9 3.879 1.008 0.08773
1216 64 1 28.035 10.202 2.534 1.008 0.08773
1217 65 4 45.407 8.319 25.986 15.999 -0.35515
1218 65 2 45.765 7.436 26.971 12.011 0.03297
1219 65 2 45.515 9.646 26.307 12.011 0.01762
1220 65 2 44.663 10.054 27.476 12.011 -0.23743
1221 65 2 44.832 11.553 27.768 12.011 -0.24423
1222 65 3 45.606 6.024 26.468 12.011 -0.1837
1223 65 3 44.785 5.198 27.079 12.011 -0.23415
1224 65 1 44.233 5.538 27.934 1.008 0.12909
1225 65 1 44.653 4.187 26.741 1.008 0.12909
1226 65 1 46.196 5.762 25.602 1.008 0.15086
1227 65 1 45.062 7.584 27.842 1.008 0.07222
1228 65 1 46.779 7.544 27.359 1.008 0.07222
1229 65 1 46.586 9.905 26.498 1.008 0.09202
1230 65 1 45.247 10.237 25.393 1.008 0.09202
1231 65 1 45.02 9.521 28.389 1.008 0.10167
1232 65 1 43.592 9.867 27.305 1.008 0.10167
1233 65 1 44.651 11.7 28.852 1.008 0.08773
1234 65 1 45.903 11.819 27.559 1.008 0.08773
1235 65 1 44.126 12.133 27.148 1.008 0.08773
1236 66 4 15.665 29.212 47.016 15.999 -0.35515
1237 66 2 15.412 30.543 47.223 12.011 0.03297
1238 66 2 15.418 28.747 45.752 12.011 0.01762
1239 66 2 13.986 28.906 45.322 12.011 -0.23743
1240 66 2 13.786 28.356 43.903 12.011 -0.24423
1241 66 3 15.743 30.906 48.648 12.011 -0.1837
1242 66 3 14.807 31.384 49.438 12.011 -0.23415
1243 66 1 13.81 31.512 49.06 1.008 0.12909
1244 66 1 15.016 31.65 50.457 1.008 0.12909
1245 66 1 16.767 30.746 48.95 1.008 0.15086
1246 66 1 14.307 30.715 47.061 1.008 0.07222
1247 66 1 15.941 31.234 46.567 1.008 0.07222
1248 66 1 16.1 29.248 45.022 1.008 0.09202
1249 66 1 15.725 27.67 45.723 1.008 0.09202
1250 66 1 13.742 29.994 45.268 1.008 0.10167
1251 66 1 13.283 28.379 45.986 1.008 0.10167
1252 66 1 12.952 28.925 43.443 1.008 0.08773
1253 66 1 14.718 28.582 43.318 1.008 0.08773
1254 66 1 13.572 27.273 43.951 1.008 0.08773
1255 67 4 32.475 43.337 12.415 15.999 -0.35515
1256 67 2 32.757 42.925 13.692 12.011 0.03297
1257 67 2 31.858 44.554 12.305 12.011 0.01762
1258 67 2 30.527 44.619 13.001 12.011 -0.23743
1259 67 2 29.894 46.007 12.825 12.011 -0.24423
1260 67 3 33.444 41.583 13.651 12.011 -0.1837
1261 67 3 32.898 40.548 14.249 12.011 -0.23415
1262 67 1 31.963 40.667 14.764 1.008 0.12909
1263 67 1 33.365 39.581 14.235 1.008 0.12909
1264 67 1 34.378 41.547 13.111 1.008 0.15086
1265 67 1 31.778 42.805 14.243 1.008 0.07222
1266 67 1 33.375 43.601 14.284 1.008 0.07222
1267 67 1 32.533 45.359 12.685 1.008 0.09202
1268 67 1 31.747 44.778 11.212 1.008 0.09202
1269 67 1 30.684 44.488 14.098 1.008 0.10167
1270 67 1 29.811 43.876 12.617 1.008 0.10167
1271 67 1 29.253 46.192 13.711 1.008 0.08773
1272 67 1 30.726 46.762 12.841 1.008 0.08773
1273 67 1 29.318 46.036 11.883 1.008 0.08773
1274 68 4 14.311 8.436 4.852 15.999 -0.35515
1275 68 2 13.438 9.458 5.119 12.011 0.03297
1276 68 2 15.64 8.737 4.982 12.011 0.01762
1277 68 2 16.098 9.841 4.071 12.011 -0.23743
1278 68 2 17.597 10.114 4.268 12.011 -0.24423
1279 68 3 12.021 8.973 4.948 12.011 -0.1837
1280 68 3 11.234 9.546 4.064 12.011 -0.23415
1281 68 1 11.608 10.357 3.47 1.008 0.12909
1282 68 1 10.22 9.219 3.921 1.008 0.12909
1283 68 1 11.723 8.152 5.582 1.008 0.15086
1284 68 1 13.625 10.28 4.367 1.008 0.07222
1285 68 1 13.523 9.908 6.109 1.008 0.07222
1286 68 1 15.87 8.991 6.046 1.008 0.09202
1287 68 1 16.219 7.797 4.791 1.008 0.09202
1288 68 1 15.573 10.785 4.352 1.008 0.10167
1289 68 1 15.94 9.606 3.007 1.008 0.10167
1290 68 1 17.772 11.182 4.024 1.008 0.08773
1291 68 1 17.826 9.97 5.358 1.008 0.08773
1292 68 1 18.185 9.44 3.622 1.008 0.08773
1293 69 4 7.233 44.382 29.143 15.999 -0.35515
1294 69 2 6.787 43.686 28.049 12.011 0.03297
1295 69 2 6.261 44.883 29.967 12.011 0.01762
1296 69 2 5.334 45.85 29.285 12.011 -0.23743
1297 69 2 4.281 46.374 30.272 12.011 -0.24423
1298 69 3 7.965 43.188 27.25 12.011 -0.1837
1299 69 3 8.117 43.566 26.001 12.011 -0.23415
1300 69 1 7.399 44.229 25.557 1.008 0.12909
1301 69 1 8.948 43.226 25.409 1.008 0.12909
1302 69 1 8.642 42.527 27.77 1.008 0.15086
1303 69 1 6.196 44.398 27.402 1.008 0.07222
1304 69 1 6.139 42.835 28.26 1.008 0.07222
1305 69 1 5.679 44.045 30.423 1.008 0.09202
1306 69 1 6.774 45.369 30.837 1.008 0.09202
1307 69 1 4.768 45.311 28.488 1.008 0.10167
1308 69 1 5.862 46.722 28.868 1.008 0.10167
1309 69 1 3.373 46.623 29.686 1.008 0.08773
1310 69 1 4.02 45.531 30.967 1.008 0.08773
1311 69 1 4.68 47.253 30.81 1.008 0.08773
1312 70 4 29.418 36.057 39.38 15.999 -0.35515
1313 70 2 29.067 36.506 38.134 12.011 0.03297
1314 70 2 30.4 35.104 39.415 12.011 0.01762
1315 70 2 30.045 33.847 38.672 12.011 -0.23743
1316 70 2 31.189 32.826 38.765 12.011 -0.24423
1317 70 3 27.991 37.555 38.257 12.011 -0.1837
1318 70 3 26.822 37.366 37.687 12.011 -0.23415
1319 70 1 26.642 36.463 37.136 1.008 0.12909
1320 70 1 26.038 38.097 37.76 1.008 0.12909
1321 70 1 28.251 38.433 38.829 1.008 0.15086
1322 70 1 28.645 35.632 37.556 1.008 0.07222
1323 70 1 29.877 36.923 37.534 1.008 0.07222
1324 70 1 31.357 35.529 39.023 1.008 0.09202
1325 70 1 30.617 34.883 40.492 1.008 0.09202
1326 70 1 29.932 34.085 37.588 1.008 0.10167
1327 70 1 29.136 33.365 39.064 1.008 0.10167
1328 70 1 31.147 32.199 37.85 1.008 0.08773
1329 70 1 32.155 33.398 38.744 1.008 0.08773
1330 70 1 31.076 32.224 39.684 1.008 0.08773
1331 71 4 31.641 36.963 20.37 15.999 -0.35515
1332 71 2 32.843 36.364 20.647 12.011 0.03297
1333 71 2 30.774 36.233 19.604 12.011 0.01762
1334 71 2 31.317 35.884 18.246 12.011 -0.23743
1335 71 2 30.286 35.075 17.445 12.011 -0.24423
1336 71 3 33.679 37.279 21.505 12.011 -0.1837
1337 71 3 34.849 37.695 21.073 12.011 -0.23415
1338 71 1 35.201 37.379 20.109 1.008 0.12909
1339 71 1 35.465 38.347 21.664 1.008 0.12909
1340 71 1 33.254 37.551 22.459 1.008 0.15086
1341 71 1 33.384 36.203 19.669 1.008 0.07222
1342 71 1 32.786 35.394 21.143 1.008 0.07222
1343 71 1 30.471 35.305 20.15 1.008 0.09202
1344 71 1 29.825 36.822 19.514 1.008 0.09202
1345 71 1 32.203 35.217 18.37 1.008 0.10167
1346 71 1 31.576 36.774 17.652 1.008 0.10167
1347 71 1 30.849 34.423 16.746 1.008 0.08773
1348 71 1 29.741 34.411 18.17 1.008 0.08773
1349 71 1 29.606 35.764 16.913 1.008 0.08773
1350 72 4 23.443 25.334 30.942 15.999 -0.35515
1351 72 2 23.983 25.516 32.189 12.011 0.03297
1352 72 2 23.013 26.469 30.308 12.011 0.01762
1353 72 2 21.938 27.206 31.056 12.011 -0.23743
1354 72 2 21.502 28.457 30.279 12.011 -0.24423
1355 72 3 24.42 24.187 32.75 12.011 -0.1837
1356 72 3 23.897 23.746 33.873 12.011 -0.23415
1357 72 1 23.161 24.338 34.383 1.008 0.12909
1358 72 1 24.191 22.802 34.295 1.008 0.12909
1359 72 1 25.163 23.654 32.177 1.008 0.15086
1360 72 1 23.177 25.937 32.859 1.008 0.07222
1361 72 1 24.831 26.2 32.243 1.008 0.07222
1362 72 1 23.88 27.146 30.108 1.008 0.09202
1363 72 1 22.655 26.17 29.288 1.008 0.09202
1364 72 1 22.355 27.574 32.024 1.008 0.10167
1365 72 1 21.041 26.591 31.225 1.008 0.10167
1366 72 1 21.152 29.202 31.023 1.008 0.08773
1367 72 1 22.415 28.877 29.777 1.008 0.08773
1368 72 1 20.711 28.19 29.557 1.008 0.08773
1369 73 4 14.818 44.343 14.088 15.999 -0.35515
1370 73 2 14.884 45.711 14.039 12.011 0.03297
1371 73 2 15.259 43.766 15.249 12.011 0.01762
1372 73 2 16.7 44.063 15.559 12.011 -0.23743
1373 73 2 17.122 43.377 16.866 12.011 -0.24423
1374 73 3 14.355 46.196 12.712 12.011 -0.1837
1375 73 3 15.133 46.887 11.909 12.011 -0.23415
1376 73 1 16.142 47.1 12.204 1.008 0.12909
1377 73 1 14.781 47.244 10.959 1.008 0.12909
1378 73 1 13.33 45.937 12.491 1.008 0.15086
1379 73 1 15.971 46.009 14.117 1.008 0.07222
1380 73 1 14.351 46.241 14.829 1.008 0.07222
1381 73 1 14.608 44.08 16.102 1.008 0.09202
1382 73 1 15.09 42.662 15.163 1.008 0.09202
1383 73 1 16.816 45.159 15.734 1.008 0.10167
1384 73 1 17.383 43.719 14.767 1.008 0.10167
1385 73 1 17.928 43.993 17.317 1.008 0.08773
1386 73 1 16.24 43.404 17.562 1.008 0.08773
1387 73 1 17.459 42.347 16.654 1.008 0.08773
1388 74 4 45.958 36.736 30.684 15.999 -0.35515
1389 74 2 46.679 36.042 31.62 12.011 0.03297
1390 74 2 44.98 37.559 31.175 12.011 0.01762
1391 74 2 43.927 36.835 31.967 12.011 -0.23743
1392 74 2 42.864 37.821 32.475 12.011 -0.24423
1393 74 3 47.72 35.195 30.932 12.011 -0.1837
1394 74 3 47.706 33.889 31.081 12.011 -0.23415
1395 74 1 46.951 33.434 31.693 1.008 0.12909
1396 74 1 48.436 33.263 30.602 1.008 0.12909
1397 74 1 48.443 35.73 30.335 1.008 0.15086
1398 74 1 45.968 35.354 32.166 1.008 0.07222
1399 74 1 47.181 36.646 32.377 1.008 0.07222
1400 74 1 45.439 38.371 31.791 1.008 0.09202
1401 74 1 44.523 38.097 30.304 1.008 0.09202
1402 74 1 44.397 36.394 32.878 1.008 0.10167
1403 74 1 43.41 36.062 31.379 1.008 0.10167
1404 74 1 42.451 37.404 33.417 1.008 0.08773
1405 74 1 43.387 38.783 32.726 1.008 0.08773
1406 74 1 42.084 37.955 31.705 1.008 0.08773
1407 75 4 31.542 35.07 25.597 15.999 -0.35515
1408 75 2 32.863 35.399 25.431 12.011 0.03297
1409 75 2 30.645 36.083 25.39 12.011 0.01762
1410 75 2 30.837 37.254 26.313 12.011 -0.23743
1411 75 2 29.791 38.342 26.026 12.011 -0.24423
1412 75 3 33.722 34.185 25.678 12.011 -0.1837
1413 75 3 34.623 34.203 26.636 12.011 -0.23415
1414 75 1 34.74 35.086 27.236 1.008 0.12909
1415 75 1 35.249 33.352 26.833 1.008 0.12909
1416 75 1 33.541 33.34 25.032 1.008 0.15086
1417 75 1 33.125 36.182 26.202 1.008 0.07222
1418 75 1 33.131 35.81 24.457 1.008 0.07222
1419 75 1 30.688 36.418 24.325 1.008 0.09202
1420 75 1 29.617 35.651 25.504 1.008 0.09202
1421 75 1 31.83 37.721 26.107 1.008 0.10167
1422 75 1 30.747 36.978 27.374 1.008 0.10167
1423 75 1 30.244 39.317 26.302 1.008 0.08773
1424 75 1 29.607 38.35 24.918 1.008 0.08773
1425 75 1 28.872 38.135 26.604 1.008 0.08773
1426 76 4 15.697 16.468 11.433 15.999 -0.35515
1427 76 2 16.281 16.41 10.194 12.011 0.03297
1428 76 2 14.331 16.386 11.452 12.011 0.01762
1429 76 2 13.651 17.487 10.688 12.011 -0.23743
1430 76 2 12.125 17.331 10.764 12.011 -0.24423
1431 76 3 17.78 16.5 10.336 12.011 -0.1837
1432 76 3 18.435 17.484 9.762 12.011 -0.23415
1433 76 1 17.896 18.219 9.195 1.008 0.12909
1434 76 1 19.503 17.571 9.847 1.008 0.12909
1435 76 1 18.245 15.722 10.922 1.008 0.15086
1436 76 1 15.927 17.304 9.602 1.008 0.07222
1437 76 1 16.05 15.524 9.602 1.008 0.07222
1438 76 1 14.004 15.388 11.068 1.008 0.09202
1439 76 1 14.008 16.387 12.526 1.008 0.09202
1440 76 1 13.916 17.397 9.608 1.008 0.10167
1441 76 1 13.903 18.487 11.072 1.008 0.10167
1442 76 1 11.701 17.774 9.839 1.008 0.08773
1443 76 1 11.896 16.232 10.753 1.008 0.08773
1444 76 1 11.745 17.831 11.673 1.008 0.08773
1445 77 4 16.593 48.708 20.883 15.999 -0.35515
1446 77 2 16.247 48.522 22.196 12.011 0.03297
1447 77 2 17.923 48.93 20.643 12.011 0.01762
1448 77 2 18.462 50.154 21.329 12.011 -0.23743
1449 77 2 19.952 50.34 21.006 12.011 -0.24423
1450 77 3 14.762 48.277 22.298 12.011 -0.1837
1451 77 3 14.011 49.092 23.005 12.011 -0.23415
1452 77 1 14.462 49.928 23.505 1.008 0.12909
1453 77 1 12.951 48.941 23.094 1.008 0.12909
1454 77 1 14.388 47.416 21.765 1.008 0.15086
1455 77 1 16.489 49.471 22.757 1.008 0.07222
1456 77 1 16.759 47.708 22.711 1.008 0.07222
1457 77 1 18.518 48.029 20.933 1.008 0.09202
1458 77 1 18.058 49.004 19.533 1.008 0.09202
1459 77 1 18.403 50.007 22.434 1.008 0.10167
1460 77 1 17.939 51.074 21.028 1.008 0.10167
1461 77 1 20.414 50.865 21.867 1.008 0.08773
1462 77 1 20.413 49.318 20.939 1.008 0.08773
1463 77 1 20.06 50.912 20.067 1.008 0.08773
1464 78 4 5.387 19.595 2.719 15.999 -0.35515
1465 78 2 6.422 19.536 3.616 12.011 0.03297
1466 78 2 4.173 19.965 3.233 12.011 0.01762
1467 78 2 3.664 19.039 4.302 12.011 -0.23743
1468 78 2 2.299 19.515 4.821 12.011 -0.24423
1469 78 3 7.687 19.13 2.903 12.011 -0.1837
1470 78 3 8.317 18.033 3.261 12.011 -0.23415
1471 78 1 7.924 17.433 4.06 1.008 0.12909
1472 78 1 9.22 17.72 2.77 1.008 0.12909
1473 78 1 8.014 19.786 2.111 1.008 0.15086
1474 78 1 6.175 18.742 4.38 1.008 0.07222
1475 78 1 6.625 20.456 4.167 1.008 0.07222
1476 78 1 4.228 21.012 3.621 1.008 0.09202
1477 78 1 3.449 20.024 2.38 1.008 0.09202
1478 78 1 4.357 19.078 5.177 1.008 0.10167
1479 78 1 3.543 18.005 3.945 1.008 0.10167
1480 78 1 2.211 19.179 5.875 1.008 0.08773
1481 78 1 2.31 20.638 4.819 1.008 0.08773
1482 78 1 1.496 19.101 4.187 1.008 0.08773
1483 79 4 39.467 8.692 35.757 15.999 -0.35515
1484 79 2 39.691 9.997 35.401 12.011 0.03297
1485 79 2 40.002 8.301 36.955 12.011 0.01762
1486 79 2 41.498 8.434 37.018 12.011 -0.23743
1487 79 2 42.022 7.969 38.385 12.011 -0.24423
1488 79 3 39.034 10.28 34.073 12.011 -0.1837
1489 79 3 39.763 10.67 33.051 12.011 -0.23415
1490 79 1 40.824 10.784 33.17 1.008 0.12909
1491 79 1 39.32 10.878 32.094 1.008 0.12909
1492 79 1 37.965 10.139 34.037 1.008 0.15086
1493 79 1 40.806 10.138 35.282 1.008 0.07222
1494 79 1 39.35 10.749 36.113 1.008 0.07222
1495 79 1 39.526 8.874 37.789 1.008 0.09202
1496 79 1 39.688 7.24 37.134 1.008 0.09202
1497 79 1 41.771 9.513 36.934 1.008 0.10167
1498 79 1 42.009 7.839 36.246 1.008 0.10167
1499 79 1 42.954 8.535 38.591 1.008 0.08773
1500 79 1 41.263 8.268 39.157 1.008 0.08773
1501 79 1 42.196 6.879 38.365 1.008 0.08773
1502 80 4 14.47 14.283 3.883 15.999 -0.35515
1503 80 2 14.882 13.185 3.174 12.011 0.03297
1504 80 2 14.61 14.201 5.242 12.011 0.01762
1505 80 2 13.836 13.07 5.86 12.011 -0.23743
1506 80 2 14.036 13.05 7.383 12.011 -0.24423
1507 80 3 14.679 13.429 1.699 12.011 -0.1837
1508 80 3 13.891 12.637 1.006 12.011 -0.23415
1509 80 1 13.396 11.821 1.497 1.008 0.12909
1510 80 1 13.729 12.789 51.9408 1.008 0.12909
1511 80 1 15.211 14.271 1.283 1.008 0.15086
1512 80 1 14.235 12.311 3.481 1.008 0.07222
1513 80 1 15.919 12.883 3.326 1.008 0.07222
1514 80 1 15.693 14.122 5.51 1.008 0.09202
1515 80 1 14.291 15.185 5.674 1.008 0.09202
1516 80 1 14.244 12.102 5.483 1.008 0.10167
1517 80 1 12.755 13.141 5.667 1.008 0.10167
1518 80 1 13.924 11.997 7.716 1.008 0.08773
1519 80 1 15.094 13.364 7.589 1.008 0.08773
1520 80 1 13.298 13.716 7.863 1.008 0.08773
1521 81 4 48.156 28.32 48.351 15.999 -0.35515
1522 81 2 47.564 28.598 47.146 12.011 0.03297
1523 81 2 49.002 27.244 48.365 12.011 0.01762
1524 81 2 48.335 25.949 47.99 12.011 -0.23743
1525 81 2 49.343 24.791 48.038 12.011 -0.24423
1526 81 3 46.677 29.81 47.285 12.011 -0.1837
1527 81 3 45.39 29.713 47.034 12.011 -0.23415
1528 81 1 44.98 28.768 46.732 1.008 0.12909
1529 81 1 44.736 30.56 47.125 1.008 0.12909
1530 81 1 47.168 30.72 47.594 1.008 0.15086
1531 81 1 46.917 27.715 46.865 1.008 0.07222
1532 81 1 48.244 28.771 46.312 1.008 0.07222
1533 81 1 49.876 27.437 47.695 1.008 0.09202
1534 81 1 49.449 27.179 49.391 1.008 0.09202
1535 81 1 47.988 26.012 46.932 1.008 0.10167
1536 81 1 47.501 25.692 48.661 1.008 0.10167
1537 81 1 49.008 24.031 47.303 1.008 0.08773
1538 81 1 50.333 25.191 47.69 1.008 0.08773
1539 81 1 49.391 24.382 49.063 1.008 0.08773
1540 82 4 14.898 27.37 23.622 15.999 -0.35515
1541 82 2 14.607 26.292 24.417 12.011 0.03297
1542 82 2 14.66 28.6 24.176 12.011 0.01762
1543 82 2 13.224 28.819 24.561 12.011 -0.23743
1544 82 2 13.036 30.219 25.164 12.011 -0.24423
1545 82 3 14.931 25.017 23.679 12.011 -0.1837
1546 82 3 13.984 24.137 23.443 12.011 -0.23415
1547 82 1 12.983 24.334 23.778 1.008 0.12909
1548 82 1 14.187 23.221 22.92 1.008 0.12909
1549 82 1 15.96 24.896 23.376 1.008 0.15086
1550 82 1 13.498 26.306 24.63 1.008 0.07222
1551 82 1 15.116 26.262 25.381 1.008 0.07222
1552 82 1 15.326 28.754 25.061 1.008 0.09202
1553 82 1 14.998 29.373 23.438 1.008 0.09202
1554 82 1 12.949 28.097 25.366 1.008 0.10167
1555 82 1 12.538 28.731 23.705 1.008 0.10167
1556 82 1 12.185 30.161 25.874 1.008 0.08773
1557 82 1 13.961 30.458 25.756 1.008 0.08773
1558 82 1 12.853 30.95 24.357 1.008 0.08773
1559 83 4 10.627 41.125 35.298 15.999 -0.35515
1560 83 2 10.157 41.053 36.583 12.011 0.03297
1561 83 2 11.854 40.56 35.079 12.011 0.01762
1562 83 2 12.955 41.178 35.895 12.011 -0.23743
1563 83 2 14.298 40.498 35.589 12.011 -0.24423
1564 83 3 8.798 41.703 36.663 12.011 -0.1837
1565 83 3 8.609 42.733 37.458 12.011 -0.23415
1566 83 1 9.427 43.104 38.046 1.008 0.12909
1567 83 1 7.652 43.214 37.533 1.008 0.12909
1568 83 1 8.031 41.27 36.039 1.008 0.15086
1569 83 1 10.866 41.632 37.245 1.008 0.07222
1570 83 1 10.076 40.05 37.004 1.008 0.07222
1571 83 1 11.805 39.459 35.267 1.008 0.09202
1572 83 1 12.075 40.644 33.984 1.008 0.09202
1573 83 1 12.755 40.991 36.977 1.008 0.10167
1574 83 1 13.075 42.254 35.699 1.008 0.10167
1575 83 1 14.924 40.578 36.502 1.008 0.08773
1576 83 1 14.092 39.409 35.409 1.008 0.08773
1577 83 1 14.772 40.986 34.719 1.008 0.08773
1578 84 4 13.522 31.535 39.704 15.999 -0.35515
1579 84 2 14.24 32.509 39.06 12.011 0.03297
1580 84 2 12.164 31.702 39.712 12.011 0.01762
1581 84 2 11.718 32.972 40.381 12.011 -0.23743
1582 84 2 10.186 33.084 40.358 12.011 -0.24423
1583 84 3 15.71 32.181 39.123 12.011 -0.1837
1584 84 3 16.544 33.016 39.704 12.011 -0.23415
1585 84 1 16.169 33.927 40.129 1.008 0.12909
1586 84 1 17.596 32.807 39.763 1.008 0.12909
1587 84 1 16.005 31.245 38.674 1.008 0.15086
1588 84 1 14.07 33.483 39.605 1.008 0.07222
1589 84 1 13.977 32.678 38.015 1.008 0.07222
1590 84 1 11.768 31.655 38.668 1.008 0.09202
1591 84 1 11.717 30.807 40.218 1.008 0.09202
1592 84 1 12.099 33.844 39.797 1.008 0.10167
1593 84 1 12.04 33.034 41.432 1.008 0.10167
1594 84 1 9.934 34.164 40.354 1.008 0.08773
1595 84 1 9.83 32.645 39.387 1.008 0.08773
1596 84 1 9.763 32.563 41.235 1.008 0.08773
1597 85 4 9.423 28.207 6.335 15.999 -0.35515
1598 85 2 8.355 28.413 7.169 12.011 0.03297
1599 85 2 9.269 27.214 5.405 12.011 0.01762
1600 85 2 9.022 25.859 6.006 12.011 -0.23743
1601 85 2 8.87 24.8 4.904 12.011 -0.24423
1602 85 3 8.667 29.539 8.123 12.011 -0.1837
1603 85 3 8.666 29.319 9.419 12.011 -0.23415
1604 85 1 8.443 28.337 9.79 1.008 0.12909
1605 85 1 8.885 30.103 10.12 1.008 0.12909
1606 85 1 8.881 30.495 7.67 1.008 0.15086
1607 85 1 8.198 27.471 7.773 1.008 0.07222
1608 85 1 7.407 28.639 6.68 1.008 0.07222
1609 85 1 8.446 27.48 4.697 1.008 0.09202
1610 85 1 10.191 27.205 4.767 1.008 0.09202
1611 85 1 8.05 25.876 6.553 1.008 0.10167
1612 85 1 9.839 25.534 6.669 1.008 0.10167
1613 85 1 8.209 24.003 5.301 1.008 0.08773
1614 85 1 8.342 25.286 4.04 1.008 0.08773
1615 85 1 9.865 24.411 4.623 1.008 0.08773
1616 86 4 46.671 43.905 37.937 15.999 -0.35515
1617 86 2 48.019 44.151 37.916 12.011 0.03297
1618 86 2 45.874 44.977 38.234 12.011 0.01762
1619 86 2 46.147 45.574 39.587 12.011 -0.23743
1620 86 2 45.21 46.762 39.85 12.011 -0.24423
1621 86 3 48.76 42.886 37.563 12.011 -0.1837
1622 86 3 49.635 42.382 38.405 12.011 -0.23415
1623 86 1 49.815 42.877 39.34 1.008 0.12909
1624 86 1 50.176 41.482 38.179 1.008 0.12909
1625 86 1 48.52 42.45 36.605 1.008 0.15086
1626 86 1 48.331 44.467 38.954 1.008 0.07222
1627 86 1 48.347 44.936 37.233 1.008 0.07222
1628 86 1 45.973 45.757 37.44 1.008 0.09202
1629 86 1 44.808 44.637 38.157 1.008 0.09202
1630 86 1 47.182 45.989 39.598 1.008 0.10167
1631 86 1 46.006 44.851 40.405 1.008 0.10167
1632 86 1 45.742 47.456 40.533 1.008 0.08773
1633 86 1 45.055 47.293 38.873 1.008 0.08773
1634 86 1 44.263 46.398 40.286 1.008 0.08773
1635 87 4 19.665 32.6 4.954 15.999 -0.35515
1636 87 2 18.578 32.309 4.172 12.011 0.03297
1637 87 2 20.649 33.34 4.356 12.011 0.01762
1638 87 2 21.249 32.677 3.148 12.011 -0.23743
1639 87 2 22.348 33.561 2.539 12.011 -0.24423
1640 87 3 17.58 31.506 4.969 12.011 -0.1837
1641 87 3 17.238 30.302 4.568 12.011 -0.23415
1642 87 1 17.673 29.898 3.673 1.008 0.12909
1643 87 1 16.53 29.709 5.117 1.008 0.12909
1644 87 1 17.191 31.984 5.855 1.008 0.15086
1645 87 1 18.933 31.675 3.307 1.008 0.07222
1646 87 1 18.057 33.167 3.745 1.008 0.07222
1647 87 1 20.255 34.351 4.087 1.008 0.09202
1648 87 1 21.434 33.545 5.129 1.008 0.09202
1649 87 1 20.464 32.576 2.361 1.008 0.10167
1650 87 1 21.699 31.699 3.38 1.008 0.10167
1651 87 1 22.386 33.339 1.453 1.008 0.08773
1652 87 1 22.027 34.63 2.66 1.008 0.08773
1653 87 1 23.311 33.352 3.038 1.008 0.08773
1654 88 4 25.395 12.892 48.417 15.999 -0.35515
1655 88 2 25.127 12.829 49.76 12.011 0.03297
1656 88 2 26.689 13.186 48.081 12.011 0.01762
1657 88 2 27.158 14.517 48.599 12.011 -0.23743
1658 88 2 28.61 14.778 48.174 12.011 -0.24423
1659 88 3 23.674 12.485 49.971 12.011 -0.1837
1660 88 3 22.892 13.315 50.625 12.011 -0.23415
1661 88 1 23.296 14.234 51.006 1.008 0.12909
1662 88 1 21.853 13.095 50.79 1.008 0.12909
1663 88 1 23.346 11.544 49.556 1.008 0.15086
1664 88 1 25.317 13.852 50.2 1.008 0.07222
1665 88 1 25.727 12.12 50.331 1.008 0.07222
1666 88 1 27.369 12.371 48.434 1.008 0.09202
1667 88 1 26.765 13.144 46.963 1.008 0.09202
1668 88 1 27.162 14.492 49.714 1.008 0.10167
1669 88 1 26.547 15.355 48.228 1.008 0.10167
1670 88 1 29.067 15.431 48.947 1.008 0.08773
1671 88 1 29.15 13.793 48.194 1.008 0.08773
1672 88 1 28.627 15.247 47.174 1.008 0.08773
1673 89 4 12.196 14.746 2.773 15.999 -0.35515
1674 89 2 11.857 16.029 3.115 12.011 0.03297
1675 89 2 11.159 13.937 2.393 12.011 0.01762
1676 89 2 10.114 13.756 3.458 12.011 -0.23743
1677 89 2 8.993 12.833 2.96 12.011 -0.24423
1678 89 3 13.098 16.797 3.496 12.011 -0.1837
1679 89 3 13.206 17.312 4.7 12.011 -0.23415
1680 89 1 12.407 17.183 5.405 1.008 0.12909
1681 89 1 14.079 17.863 4.998 1.008 0.12909
1682 89 1 13.855 16.88 2.731 1.008 0.15086
1683 89 1 11.179 15.981 4.017 1.008 0.07222
1684 89 1 11.33 16.6 2.35 1.008 0.07222
1685 89 1 10.694 14.331 1.456 1.008 0.09202
1686 89 1 11.595 12.949 2.091 1.008 0.09202
1687 89 1 9.633 14.742 3.665 1.008 0.10167
1688 89 1 10.522 13.318 4.381 1.008 0.10167
1689 89 1 8.063 13.127 3.49 1.008 0.08773
1690 89 1 8.844 13.04 1.867 1.008 0.08773
1691 89 1 9.264 11.78 3.156 1.008 0.08773
1692 90 4 22.749 27.345 20.62 15.999 -0.35515
1693 90 2 21.47 27.828 20.709 12.011 0.03297
1694 90 2 23.567 27.985 19.728 12.011 0.01762
1695 90 2 23.07 27.933 18.311 12.011 -0.23743
1696 90 2 24.042 28.663 17.372 12.011 -0.24423
1697 90 3 20.699 27.036 21.735 12.011 -0.1837
1698 90 3 19.617 26.38 21.379 12.011 -0.23415
1699 90 1 19.289 26.414 20.357 1.008 0.12909
1700 90 1 19.049 25.808 22.089 1.008 0.12909
1701 90 1 21.095 27.052 22.739 1.008 0.15086
1702 90 1 20.974 27.685 19.704 1.008 0.07222
1703 90 1 21.378 28.885 20.961 1.008 0.07222
1704 90 1 23.721 29.046 20.046 1.008 0.09202
1705 90 1 24.584 27.522 19.81 1.008 0.09202
1706 90 1 22.103 28.488 18.244 1.008 0.10167
1707 90 1 22.957 26.904 17.938 1.008 0.10167
1708 90 1 23.448 29.054 16.52 1.008 0.08773
1709 90 1 24.457 29.543 17.933 1.008 0.08773
1710 90 1 24.831 27.965 17.04 1.008 0.08773
1711 91 4 9.603 19.473 48.925 15.999 -0.35515
1712 91 2 9.177 19.874 50.164 12.011 0.03297
1713 91 2 10.454 18.401 48.905 12.011 0.01762
1714 91 2 11.732 18.633 49.661 12.011 -0.23743
1715 91 2 12.636 17.394 49.586 12.011 -0.24423
1716 91 3 8.241 21.048 50.023 12.011 -0.1837
1717 91 3 8.539 22.196 50.59 12.011 -0.23415
1718 91 1 9.45 22.288 51.152 1.008 0.12909
1719 91 1 7.891 23.048 50.505 1.008 0.12909
1720 91 1 7.349 20.873 49.442 1.008 0.15086
1721 91 1 10.082 20.21 50.751 1.008 0.07222
1722 91 1 8.675 19.113 50.763 1.008 0.07222
1723 91 1 9.932 17.493 49.296 1.008 0.09202
1724 91 1 10.665 18.157 47.832 1.008 0.09202
1725 91 1 11.494 18.776 50.743 1.008 0.10167
1726 91 1 12.307 19.488 49.271 1.008 0.10167
1727 91 1 13.253 17.378 50.508 1.008 0.08773
1728 91 1 11.97 16.489 49.604 1.008 0.08773
1729 91 1 13.256 17.441 48.674 1.008 0.08773
1730 92 4 26.294 31.376 29.642 15.999 -0.35515
1731 92 2 25.646 31.456 28.438 12.011 0.03297
1732 92 2 26.156 32.46 30.467 12.011 0.01762
1733 92 2 26.672 33.739 29.871 12.011 -0.23743
1734 92 2 26.491 34.904 30.855 12.011 -0.24423
1735 92 3 25.879 30.19 27.651 12.011 -0.1837
1736 92 3 26.468 30.247 26.477 12.011 -0.23415
1737 92 1 26.779 31.197 26.087 1.008 0.12909
1738 92 1 26.647 29.361 25.897 1.008 0.12909
1739 92 1 25.538 29.277 28.115 1.008 0.15086
1740 92 1 26.09 32.319 27.861 1.008 0.07222
1741 92 1 24.57 31.627 28.489 1.008 0.07222
1742 92 1 25.085 32.576 30.767 1.008 0.09202
1743 92 1 26.687 32.224 31.426 1.008 0.09202
1744 92 1 26.059 33.996 28.974 1.008 0.10167
1745 92 1 27.741 33.685 29.612 1.008 0.10167
1746 92 1 26.375 35.829 30.255 1.008 0.08773
1747 92 1 25.529 34.731 31.409 1.008 0.08773
1748 92 1 27.362 34.957 31.532 1.008 0.08773
1749 93 4 43.388 21.586 50.5 15.999 -0.35515
1750 93 2 43.447 20.348 49.916 12.011 0.03297
1751 93 2 42.207 21.899 51.118 12.011 0.01762
1752 93 2 41.023 21.887 50.193 12.011 -0.23743
1753 93 2 39.741 22.255 50.954 12.011 -0.24423
1754 93 3 44.805 20.145 49.293 12.011 -0.1837
1755 93 3 44.907 19.923 48.001 12.011 -0.23415
1756 93 1 44.019 19.887 47.399 1.008 0.12909
1757 93 1 45.862 19.775 47.532 1.008 0.12909
1758 93 1 45.646 20.198 49.967 1.008 0.15086
1759 93 1 42.671 20.314 49.095 1.008 0.07222
1760 93 1 43.249 19.502 50.576 1.008 0.07222
1761 93 1 42.033 21.207 51.979 1.008 0.09202
1762 93 1 42.331 22.906 51.593 1.008 0.09202
1763 93 1 40.868 20.849 49.813 1.008 0.10167
1764 93 1 41.129 22.597 49.358 1.008 0.10167
1765 93 1 38.896 21.752 50.44 1.008 0.08773
1766 93 1 39.824 21.818 0.000243 1.008 0.08773
1767 93 1 39.621 23.353 50.971 1.008 0.08773
1768 94 4 44.435 12.244 24.966 15.999 -0.35515
1769 94 2 45.381 12.186 23.976 12.011 0.03297
1770 94 2 43.149 11.982 24.577 12.011 0.01762
1771 94 2 42.631 12.933 23.534 12.011 -0.23743
1772 94 2 41.184 12.582 23.157 12.011 -0.24423
1773 94 3 46.741 12.482 24.557 12.011 -0.1837
1774 94 3 47.435 13.506 24.113 12.011 -0.23415
1775 94 1 47.027 14.126 23.338 1.008 0.12909
1776 94 1 48.406 13.739 24.51 1.008 0.12909
1777 94 1 47.078 11.812 25.334 1.008 0.15086
1778 94 1 45.139 12.986 23.216 1.008 0.07222
1779 94 1 45.445 11.241 23.435 1.008 0.07222
1780 94 1 43.068 10.928 24.214 1.008 0.09202
1781 94 1 42.506 12.009 25.495 1.008 0.09202
1782 94 1 43.23 12.811 22.601 1.008 0.10167
1783 94 1 42.641 13.98 23.873 1.008 0.10167
1784 94 1 41.029 12.905 22.107 1.008 0.08773
1785 94 1 41.089 11.463 23.189 1.008 0.08773
1786 94 1 40.487 13.083 23.851 1.008 0.08773
1787 95 4 35.251 8.891 26.36 15.999 -0.35515
1788 95 2 34.185 8.072 26.628 12.011 0.03297
1789 95 2 34.986 10.234 26.36 12.011 0.01762
1790 95 2 33.958 10.645 25.343 12.011 -0.23743
1791 95 2 33.722 12.162 25.398 12.011 -0.24423
1792 95 3 34.633 6.633 26.606 12.011 -0.1837
1793 95 3 34.093 5.791 25.753 12.011 -0.23415
1794 95 1 33.334 6.136 25.077 1.008 0.12909
1795 95 1 34.394 4.76 25.716 1.008 0.12909
1796 95 1 35.401 6.367 27.316 1.008 0.15086
1797 95 1 33.42 8.218 25.81 1.008 0.07222
1798 95 1 33.675 8.252 27.575 1.008 0.07222
1799 95 1 34.671 10.56 27.382 1.008 0.09202
1800 95 1 35.955 10.769 26.186 1.008 0.09202
1801 95 1 32.981 10.172 25.602 1.008 0.10167
1802 95 1 34.256 10.392 24.314 1.008 0.10167
1803 95 1 32.679 12.346 25.069 1.008 0.08773
1804 95 1 33.804 12.477 26.473 1.008 0.08773
1805 95 1 34.456 12.675 24.752 1.008 0.08773
1806 96 4 9.047 6.135 32.674 15.999 -0.35515
1807 96 2 8.696 6.532 33.938 12.011 0.03297
1808 96 2 9.774 4.978 32.593 12.011 0.01762
1809 96 2 11.086 5.038 33.323 12.011 -0.23743
1810 96 2 11.844 3.711 33.179 12.011 -0.24423
1811 96 3 7.893 7.807 33.864 12.011 -0.1837
1812 96 3 8.33 8.892 34.465 12.011 -0.23415
1813 96 1 9.257 8.861 35.006 1.008 0.12909
1814 96 1 7.778 9.813 34.429 1.008 0.12909
1815 96 1 6.974 7.754 33.301 1.008 0.15086
1816 96 1 9.645 6.743 34.512 1.008 0.07222
1817 96 1 8.126 5.808 34.521 1.008 0.07222
1818 96 1 9.163 4.118 32.964 1.008 0.09202
1819 96 1 9.933 4.755 31.506 1.008 0.09202
1820 96 1 10.889 5.163 34.415 1.008 0.10167
1821 96 1 11.743 5.839 32.949 1.008 0.10167
1822 96 1 12.476 3.591 34.083 1.008 0.08773
1823 96 1 11.083 2.885 33.181 1.008 0.08773
1824 96 1 12.446 3.725 32.253 1.008 0.08773
1825 97 4 18.15 30.604 34.924 15.999 -0.35515
1826 97 2 17.078 29.945 34.381 12.011 0.03297
1827 97 2 18.859 31.399 34.065 12.011 0.01762
1828 97 2 19.454 30.65 32.905 12.011 -0.23743
1829 97 2 20.239 31.605 31.993 12.011 -0.24423
1830 97 3 16.393 29.126 35.446 12.011 -0.1837
1831 97 3 16.296 27.822 35.309 12.011 -0.23415
1832 97 1 16.707 27.35 34.437 1.008 0.12909
1833 97 1 15.814 27.215 36.053 1.008 0.12909
1834 97 1 16.009 29.677 36.291 1.008 0.15086
1835 97 1 17.468 29.241 33.588 1.008 0.07222
1836 97 1 16.325 30.575 33.905 1.008 0.07222
1837 97 1 18.213 32.234 33.697 1.008 0.09202
1838 97 1 19.659 31.91 34.661 1.008 0.09202
1839 97 1 18.628 30.236 32.278 1.008 0.10167
1840 97 1 20.142 29.853 33.223 1.008 0.10167
1841 97 1 20.202 31.187 30.967 1.008 0.08773
1842 97 1 19.693 32.587 31.984 1.008 0.08773
1843 97 1 21.275 31.703 32.363 1.008 0.08773
1844 98 4 41.21 47.761 44.278 15.999 -0.35515
1845 98 2 41.872 48.956 44.395 12.011 0.03297
1846 98 2 40.035 47.797 43.577 12.011 0.01762
1847 98 2 39.006 48.716 44.175 12.011 -0.23743
1848 98 2 37.717 48.695 43.341 12.011 -0.24423
1849 98 3 43.147 48.755 45.176 12.011 -0.1837
1850 98 3 43.336 49.407 46.301 12.011 -0.23415
1851 98 1 42.579 50.08 46.657 1.008 0.12909
1852 98 1 44.235 49.282 46.877 1.008 0.12909
1853 98 1 43.856 48.06 44.751 1.008 0.15086
1854 98 1 41.21 49.665 44.974 1.008 0.07222
1855 98 1 42.126 49.452 43.458 1.008 0.07222
1856 98 1 40.234 48.078 42.514 1.008 0.09202
1857 98 1 39.646 46.748 43.518 1.008 0.09202
1858 98 1 39.385 49.765 44.13 1.008 0.10167
1859 98 1 38.739 48.439 45.207 1.008 0.10167
1860 98 1 37.23 49.685 43.462 1.008 0.08773
1861 98 1 38.014 48.589 42.263 1.008 0.08773
1862 98 1 37.067 47.87 43.681 1.008 0.08773
1863 99 4 44.031 48.306 30.799 15.999 -0.35515
1864 99 2 44.223 48.073 29.462 12.011 0.03297
1865 99 2 42.802 47.964 31.294 12.011 0.01762
1866 99 2 41.665 48.698 30.64 12.011 -0.23743
1867 99 2 40.323 48.268 31.252 12.011 -0.24423
1868 99 3 45.62 48.486 29.071 12.011 -0.1837
1869 99 3 45.798 49.416 28.16 12.011 -0.23415
1870 99 1 44.944 49.876 27.699 1.008 0.12909
1871 99 1 46.782 49.729 27.862 1.008 0.12909
1872 99 1 46.423 47.976 29.582 1.008 0.15086
1873 99 1 43.49 48.715 28.89 1.008 0.07222
1874 99 1 44.071 47.045 29.133 1.008 0.07222
1875 99 1 42.651 46.859 31.207 1.008 0.09202
1876 99 1 42.817 48.155 32.398 1.008 0.09202
1877 99 1 41.618 48.41 29.562 1.008 0.10167
1878 99 1 41.746 49.79 30.75 1.008 0.10167
1879 99 1 39.549 48.388 30.467 1.008 0.08773
1880 99 1 40.398 47.174 31.495 1.008 0.08773
1881 99 1 40.108 48.883 32.143 1.008 0.08773
1882 100 4 16.57 24.265 4.022 15.999 -0.35515
1883 100 2 16.052 24.132 2.76 12.011 0.03297
1884 100 2 15.673 24.588 5.004 12.011 0.01762
1885 100 2 14.97 25.896 4.77 12.011 -0.23743
1886 100 2 13.99 26.193 5.914 12.011 -0.24423
1887 100 3 17.152 23.763 1.797 12.011 -0.1837
1888 100 3 17.425 24.551 0.78 12.011 -0.23415
1889 100 1 16.86 25.454 0.644 1.008 0.12909
1890 100 1 18.203 24.313 0.079 1.008 0.12909
1891 100 1 17.673 22.841 2.005 1.008 0.15086
1892 100 1 15.63 25.133 2.451 1.008 0.07222
1893 100 1 15.25 23.401 2.651 1.008 0.07222
1894 100 1 14.928 23.764 5.125 1.008 0.09202
1895 100 1 16.229 24.603 5.977 1.008 0.09202
1896 100 1 14.349 25.815 3.846 1.008 0.10167
1897 100 1 15.667 26.745 4.7 1.008 0.10167
1898 100 1 13.169 26.81 5.494 1.008 0.08773
1899 100 1 13.549 25.214 6.243 1.008 0.08773
1900 100 1 14.52 26.711 6.732 1.008 0.08773
1901 101 4 23.638 19.148 17.205 15.999 -0.35515
1902 101 2 24.463 18.084 16.954 12.011 0.03297
1903 101 2 23.062 19.728 16.106 12.011 0.01762
1904 101 2 24.058 20.275 15.123 12.011 -0.23743
1905 101 2 23.337 20.915 13.926 12.011 -0.24423
1906 101 3 25.008 17.547 18.254 12.011 -0.1837
1907 101 3 26.306 17.531 18.463 12.011 -0.23415
1908 101 1 26.97 17.9 17.705 1.008 0.12909
1909 101 1 26.721 17.154 19.38 1.008 0.12909
1910 101 1 24.275 17.196 18.964 1.008 0.15086
1911 101 1 25.33 18.455 16.332 1.008 0.07222
1912 101 1 24.014 17.253 16.408 1.008 0.07222
1913 101 1 22.382 18.997 15.603 1.008 0.09202
1914 101 1 22.377 20.536 16.471 1.008 0.09202
1915 101 1 24.658 19.432 14.706 1.008 0.10167
1916 101 1 24.713 21.042 15.565 1.008 0.10167
1917 101 1 24.01 20.823 13.049 1.008 0.08773
1918 101 1 22.418 20.304 13.72 1.008 0.08773
1919 101 1 23.099 21.969 14.156 1.008 0.08773
1920 102 4 48.974 25.61 3.594 15.999 -0.35515
1921 102 2 48.744 25.837 2.262 12.011 0.03297
1922 102 2 48.003 26.053 4.451 12.011 0.01762
1923 102 2 47.768 27.536 4.38 12.011 -0.23743
1924 102 2 46.675 27.957 5.373 12.011 -0.24423
1925 102 3 49.887 25.284 1.449 12.011 -0.1837
1926 102 3 50.596 26.085 0.685 12.011 -0.23415
1927 102 1 50.353 27.13 0.646 1.008 0.12909
1928 102 1 51.415 25.718 0.095 1.008 0.12909
1929 102 1 50.065 24.224 1.545 1.008 0.15086
1930 102 1 48.703 26.954 2.102 1.008 0.07222
1931 102 1 47.816 25.424 1.864 1.008 0.07222
1932 102 1 47.049 25.5 4.264 1.008 0.09202
1933 102 1 48.302 25.746 5.487 1.008 0.09202
1934 102 1 47.379 27.794 3.366 1.008 0.10167
1935 102 1 48.672 28.12 4.612 1.008 0.10167
1936 102 1 46.18 28.858 4.956 1.008 0.08773
1937 102 1 45.914 27.131 5.406 1.008 0.08773
1938 102 1 47.127 28.152 6.361 1.008 0.08773
1939 103 4 44.639 17.11 16.373 15.999 -0.35515
1940 103 2 44.391 17.691 15.157 12.011 0.03297
1941 103 2 44.674 15.742 16.384 12.011 0.01762
1942 103 2 43.386 15.104 15.942 12.011 -0.23743
1943 103 2 43.5 13.573 15.99 12.011 -0.24423
1944 103 3 44.397 19.192 15.301 12.011 -0.1837
1945 103 3 43.321 19.884 14.998 12.011 -0.23415
1946 103 1 42.444 19.373 14.649 1.008 0.12909
1947 103 1 43.298 20.954 15.092 1.008 0.12909
1948 103 1 45.317 19.628 15.659 1.008 0.15086
1949 103 1 43.361 17.371 14.822 1.008 0.07222
1950 103 1 45.082 17.427 14.355 1.008 0.07222
1951 103 1 45.523 15.377 15.755 1.008 0.09202
1952 103 1 44.941 15.42 17.424 1.008 0.09202
1953 103 1 43.199 15.365 14.873 1.008 0.10167
1954 103 1 42.531 15.393 16.572 1.008 0.10167
1955 103 1 42.816 13.166 15.218 1.008 0.08773
1956 103 1 44.55 13.303 15.694 1.008 0.08773
1957 103 1 43.243 13.213 17.002 1.008 0.08773
1958 104 4 15.183 7.74 2.104 15.999 -0.35515
1959 104 2 15.168 8.345 0.875 12.011 0.03297
1960 104 2 14.181 6.836 2.335 12.011 0.01762
1961 104 2 12.803 7.429 2.249 12.011 -0.23743
1962 104 2 11.737 6.359 2.528 12.011 -0.24423
1963 104 3 16.332 9.298 0.765 12.011 -0.1837
1964 104 3 16.114 10.578 0.555 12.011 -0.23415
1965 104 1 15.106 10.935 0.463 1.008 0.12909
1966 104 1 16.925 11.278 0.473 1.008 0.12909
1967 104 1 17.312 8.859 0.871 1.008 0.15086
1968 104 1 14.212 8.942 0.793 1.008 0.07222
1969 104 1 15.199 7.675 0.015 1.008 0.07222
1970 104 1 14.276 5.973 1.63 1.008 0.09202
1971 104 1 14.359 6.386 3.347 1.008 0.09202
1972 104 1 12.622 7.778 1.204 1.008 0.10167
1973 104 1 12.648 8.248 2.968 1.008 0.10167
1974 104 1 10.822 6.651 1.973 1.008 0.08773
1975 104 1 12.108 5.392 2.093 1.008 0.08773
1976 104 1 11.557 6.289 3.615 1.008 0.08773
1977 105 4 9.359 40.13 30.803 15.999 -0.35515
1978 105 2 9.774 39.365 29.744 12.011 0.03297
1979 105 2 9.617 41.471 30.707 12.011 0.01762
1980 105 2 11.08 41.795 30.587 12.011 -0.23743
1981 105 2 11.289 43.314 30.493 12.011 -0.24423
1982 105 3 9.41 37.922 29.988 12.011 -0.1837
1983 105 3 10.353 37.008 30.04 12.011 -0.23415
1984 105 1 11.379 37.297 29.907 1.008 0.12909
1985 105 1 10.122 35.973 30.212 1.008 0.12909
1986 105 1 8.358 37.715 30.112 1.008 0.15086
1987 105 1 10.899 39.441 29.681 1.008 0.07222
1988 105 1 9.381 39.652 28.768 1.008 0.07222
1989 105 1 9.052 41.907 29.846 1.008 0.09202
1990 105 1 9.172 41.966 31.609 1.008 0.09202
1991 105 1 11.469 41.371 29.631 1.008 0.10167
1992 105 1 11.666 41.431 31.445 1.008 0.10167
1993 105 1 12.217 43.484 29.909 1.008 0.08773
1994 105 1 10.431 43.737 29.904 1.008 0.08773
1995 105 1 11.354 43.744 31.509 1.008 0.08773
1996 106 4 8.743 29.943 35.691 15.999 -0.35515
1997 106 2 8.225 29.802 36.952 12.011 0.03297
1998 106 2 7.854 29.789 34.661 12.011 0.01762
1999 106 2 7.201 28.436 34.627 12.011 -0.23743
2000 106 2 6.227 28.337 33.443 12.011 -0.24423
2001 106 3 9.315 30.011 37.974 12.011 -0.1837
2002 106 3 9.621 29.046 38.813 12.011 -0.23415
2003 106 1 9.09 28.114 38.764 1.008 0.12909
2004 106 1 10.393 29.169 39.55 1.008 0.12909
2005 106 1 9.8 30.975 37.955 1.008 0.15086
2006 106 1 7.842 28.744 37.054 1.008 0.07222
2007 106 1 7.397 30.465 37.202 1.008 0.07222
2008 106 1 7.078 30.593 34.705 1.008 0.09202
2009 106 1 8.406 29.989 33.706 1.008 0.09202
2010 106 1 6.581 28.308 35.547 1.008 0.10167
2011 106 1 7.929 27.616 34.528 1.008 0.10167
2012 106 1 5.432 27.619 33.729 1.008 0.08773
2013 106 1 5.749 29.345 33.315 1.008 0.08773
2014 106 1 6.773 28.013 32.54 1.008 0.08773
2015 107 4 11.65 40.749 15.488 15.999 -0.35515
2016 107 2 12.116 39.521 15.097 12.011 0.03297
2017 107 2 11.665 40.99 16.836 12.011 0.01762
2018 107 2 10.83 40.025 17.629 12.011 -0.23743
2019 107 2 10.89 40.364 19.126 12.011 -0.24423
2020 107 3 12.05 39.41 13.594 12.011 -0.1837
2021 107 3 11.322 38.467 13.038 12.011 -0.23415
2022 107 1 10.779 37.782 13.66 1.008 0.12909
2023 107 1 11.258 38.366 11.97 1.008 0.12909
2024 107 1 12.624 40.138 13.041 1.008 0.15086
2025 107 1 11.438 38.735 15.54 1.008 0.07222
2026 107 1 13.132 39.278 15.408 1.008 0.07222
2027 107 1 12.718 40.991 17.211 1.008 0.09202
2028 107 1 11.315 42.043 16.994 1.008 0.09202
2029 107 1 11.263 39.001 17.528 1.008 0.10167
2030 107 1 9.771 40.033 17.328 1.008 0.10167
2031 107 1 10.741 39.418 19.685 1.008 0.08773
2032 107 1 11.927 40.733 19.347 1.008 0.08773
2033 107 1 10.116 41.114 19.368 1.008 0.08773
2034 108 4 20.396 39.497 21.612 15.999 -0.35515
2035 108 2 20.26 40.226 22.764 12.011 0.03297
2036 108 2 20.485 38.14 21.772 12.011 0.01762
2037 108 2 21.659 37.709 22.605 12.011 -0.23743
2038 108 2 21.696 36.178 22.732 12.011 -0.24423
2039 108 3 20.162 41.693 22.426 12.011 -0.1837
2040 108 3 21.054 42.535 22.897 12.011 -0.23415
2041 108 1 21.848 42.171 23.521 1.008 0.12909
2042 108 1 21.007 43.585 22.672 1.008 0.12909
2043 108 1 19.335 41.977 21.793 1.008 0.15086
2044 108 1 21.189 40.067 23.387 1.008 0.07222
2045 108 1 19.407 39.967 23.392 1.008 0.07222
2046 108 1 19.534 37.745 22.208 1.008 0.09202
2047 108 1 20.531 37.682 20.75 1.008 0.09202
2048 108 1 21.532 38.1 23.643 1.008 0.10167
2049 108 1 22.622 38.03 22.18 1.008 0.10167
2050 108 1 22.184 35.939 23.699 1.008 0.08773
2051 108 1 20.633 35.818 22.786 1.008 0.08773
2052 108 1 22.243 35.748 21.875 1.008 0.08773
2053 109 4 40.773 36.504 30.091 15.999 -0.35515
2054 109 2 40.628 35.19 29.728 12.011 0.03297
2055 109 2 39.681 37.082 30.681 12.011 0.01762
2056 109 2 38.458 37.089 29.807 12.011 -0.23743
2057 109 2 37.282 37.76 30.532 12.011 -0.24423
2058 109 3 41.91 34.692 29.108 12.011 -0.1837
2059 109 3 41.91 34.245 27.872 12.011 -0.23415
2060 109 1 40.995 34.238 27.311 1.008 0.12909
2061 109 1 42.809 33.884 27.407 1.008 0.12909
2062 109 1 42.785 34.733 29.738 1.008 0.15086
2063 109 1 39.812 35.133 28.948 1.008 0.07222
2064 109 1 40.352 34.503 30.529 1.008 0.07222
2065 109 1 39.46 36.576 31.653 1.008 0.09202
2066 109 1 39.969 38.126 30.972 1.008 0.09202
2067 109 1 38.142 36.036 29.617 1.008 0.10167
2068 109 1 38.616 37.628 28.86 1.008 0.10167
2069 109 1 36.349 37.307 30.138 1.008 0.08773
2070 109 1 37.36 37.493 31.62 1.008 0.08773
2071 109 1 37.316 38.851 30.363 1.008 0.08773
2072 110 4 29.002 2.031 32.515 15.999 -0.35515
2073 110 2 28.943 2.562 31.253 12.011 0.03297
2074 110 2 29.859 2.652 33.384 12.011 0.01762
2075 110 2 31.291 2.64 32.927 12.011 -0.23743
2076 110 2 32.189 3.344 33.955 12.011 -0.24423
2077 110 3 27.953 1.785 30.422 12.011 -0.1837
2078 110 3 28.351 1.177 29.326 12.011 -0.23415
2079 110 1 29.382 1.238 29.032 1.008 0.12909
2080 110 1 27.667 0.617 28.716 1.008 0.12909
2081 110 1 26.938 1.771 30.788 1.008 0.15086
2082 110 1 29.965 2.452 30.782 1.008 0.07222
2083 110 1 28.678 3.618 31.194 1.008 0.07222
2084 110 1 29.52 3.701 33.569 1.008 0.09202
2085 110 1 29.754 2.148 34.379 1.008 0.09202
2086 110 1 31.377 3.232 31.985 1.008 0.10167
2087 110 1 31.683 1.621 32.786 1.008 0.10167
2088 110 1 33.052 3.771 33.402 1.008 0.08773
2089 110 1 31.602 4.2 34.386 1.008 0.08773
2090 110 1 32.509 2.622 34.726 1.008 0.08773
2091 111 4 28.205 15.159 35.63 15.999 -0.35515
2092 111 2 27.58 14.597 34.548 12.011 0.03297
2093 111 2 29.368 14.557 36.026 12.011 0.01762
2094 111 2 29.195 13.118 36.425 12.011 -0.23743
2095 111 2 30.538 12.515 36.864 12.011 -0.24423
2096 111 3 26.328 15.373 34.225 12.011 -0.1837
2097 111 3 25.158 14.774 34.254 12.011 -0.23415
2098 111 1 25.104 13.732 34.508 1.008 0.12909
2099 111 1 24.251 15.303 34.029 1.008 0.12909
2100 111 1 26.469 16.415 33.981 1.008 0.15086
2101 111 1 27.281 13.544 34.827 1.008 0.07222
2102 111 1 28.177 14.527 33.638 1.008 0.07222
2103 111 1 30.137 14.645 35.219 1.008 0.09202
2104 111 1 29.788 15.157 36.874 1.008 0.09202
2105 111 1 28.871 12.53 35.533 1.008 0.10167
2106 111 1 28.486 12.991 37.257 1.008 0.10167
2107 111 1 30.5 11.429 36.643 1.008 0.08773
2108 111 1 31.338 12.968 36.219 1.008 0.08773
2109 111 1 30.701 12.714 37.938 1.008 0.08773
2110 112 4 31.608 33.039 29.362 15.999 -0.35515
2111 112 2 31.766 34.25 29.984 12.011 0.03297
2112 112 2 30.686 32.197 29.924 12.011 0.01762
2113 112 2 30.998 31.827 31.347 12.011 -0.23743
2114 112 2 29.928 30.876 31.903 12.011 -0.24423
2115 112 3 32.798 35.067 29.247 12.011 -0.1837
2116 112 3 33.887 35.462 29.868 12.011 -0.23415
2117 112 1 34.034 35.199 30.898 1.008 0.12909
2118 112 1 34.638 36.045 29.367 1.008 0.12909
2119 112 1 32.575 35.288 28.214 1.008 0.15086
2120 112 1 32.148 34.057 31.03 1.008 0.07222
2121 112 1 30.864 34.855 30.082 1.008 0.07222
2122 112 1 29.666 32.648 29.856 1.008 0.09202
2123 112 1 30.628 31.282 29.278 1.008 0.09202
2124 112 1 30.953 32.745 31.98 1.008 0.10167
2125 112 1 31.973 31.327 31.451 1.008 0.10167
2126 112 1 29.876 31.041 32.999 1.008 0.08773
2127 112 1 28.941 31.184 31.463 1.008 0.08773
2128 112 1 30.192 29.833 31.654 1.008 0.08773
2129 113 4 10.117 23.232 29.714 15.999 -0.35515
2130 113 2 10.609 22.88 30.944 12.011 0.03297
2131 113 2 9.354 24.368 29.681 12.011 0.01762
2132 113 2 8.127 24.294 30.546 12.011 -0.23743
2133 113 2 7.321 25.598 30.449 12.011 -0.24423
2134 113 3 11.435 21.624 30.818 12.011 -0.1837
2135 113 3 11.095 20.545 31.489 12.011 -0.23415
2136 113 1 10.228 20.568 32.122 1.008 0.12909
2137 113 1 11.665 19.638 31.418 1.008 0.12909
2138 113 1 12.289 21.684 30.16 1.008 0.15086
2139 113 1 9.731 22.66 31.62 1.008 0.07222
2140 113 1 11.217 23.634 31.446 1.008 0.07222
2141 113 1 9.976 25.253 29.964 1.008 0.09202
2142 113 1 9.076 24.556 28.611 1.008 0.09202
2143 113 1 8.44 24.205 31.614 1.008 0.10167
2144 113 1 7.458 23.468 30.263 1.008 0.10167
2145 113 1 6.784 25.727 31.411 1.008 0.08773
2146 113 1 8.055 26.443 30.351 1.008 0.08773
2147 113 1 6.627 25.543 29.592 1.008 0.08773
2148 114 4 24.929 38.931 15.358 15.999 -0.35515
2149 114 2 25.268 38.166 14.272 12.011 0.03297
2150 114 2 23.724 39.576 15.28 12.011 0.01762
2151 114 2 23.628 40.535 14.126 12.011 -0.23743
2152 114 2 22.256 41.224 14.111 12.011 -0.24423
2153 114 3 26.606 37.513 14.51 12.011 -0.1837
2154 114 3 27.609 37.757 13.697 12.011 -0.23415
2155 114 1 27.467 38.422 12.866 1.008 0.12909
2156 114 1 28.573 37.305 13.843 1.008 0.12909
2157 114 1 26.666 36.859 15.367 1.008 0.15086
2158 114 1 25.362 38.852 13.38 1.008 0.07222
2159 114 1 24.556 37.387 14 1.008 0.07222
2160 114 1 22.894 38.828 15.231 1.008 0.09202
2161 114 1 23.562 40.107 16.254 1.008 0.09202
2162 114 1 23.696 39.963 13.171 1.008 0.10167
2163 114 1 24.396 41.324 14.166 1.008 0.10167
2164 114 1 22.025 41.478 13.056 1.008 0.08773
2165 114 1 21.497 40.471 14.456 1.008 0.08773
2166 114 1 22.283 42.12 14.756 1.008 0.08773
2167 115 4 36.127 18.196 1.534 15.999 -0.35515
2168 115 2 36.059 18.839 2.743 12.011 0.03297
2169 115 2 37.251 17.445 1.322 12.011 0.01762
2170 115 2 38.525 18.241 1.371 12.011 -0.23743
2171 115 2 39.738 17.334 1.115 12.011 -0.24423
2172 115 3 34.765 19.609 2.835 12.011 -0.1837
2173 115 3 34.789 20.913 2.999 12.011 -0.23415
2174 115 1 35.732 21.421 3.067 1.008 0.12909
2175 115 1 33.883 21.486 3.068 1.008 0.12909
2176 115 1 33.862 19.025 2.756 1.008 0.15086
2177 115 1 36.914 19.575 2.793 1.008 0.07222
2178 115 1 36.135 18.202 3.625 1.008 0.07222
2179 115 1 37.292 16.603 2.056 1.008 0.09202
2180 115 1 37.136 16.939 0.328 1.008 0.09202
2181 115 1 38.658 18.65 2.401 1.008 0.10167
2182 115 1 38.55 19.049 0.623 1.008 0.10167
2183 115 1 40.602 17.78 1.649 1.008 0.08773
2184 115 1 39.52 16.338 1.587 1.008 0.08773
2185 115 1 39.919 17.254 0.029 1.008 0.08773
2186 116 4 36.121 34.243 33.178 15.999 -0.35515
2187 116 2 37.058 35.04 33.781 12.011 0.03297
2188 116 2 36.602 33.344 32.264 12.011 0.01762
2189 116 2 37.319 33.986 31.109 12.011 -0.23743
2190 116 2 37.82 32.918 30.126 12.011 -0.24423
2191 116 3 36.382 35.962 34.765 12.011 -0.1837
2192 116 3 36.476 37.264 34.615 12.011 -0.23415
2193 116 1 37.036 37.663 33.79 1.008 0.12909
2194 116 1 36.004 37.943 35.301 1.008 0.12909
2195 116 1 35.838 35.481 35.564 1.008 0.15086
2196 116 1 37.544 35.671 32.981 1.008 0.07222
2197 116 1 37.86 34.518 34.305 1.008 0.07222
2198 116 1 37.27 32.605 32.772 1.008 0.09202
2199 116 1 35.736 32.731 31.904 1.008 0.09202
2200 116 1 38.23 34.506 31.49 1.008 0.10167
2201 116 1 36.678 34.681 30.546 1.008 0.10167
2202 116 1 38.725 33.324 29.63 1.008 0.08773
2203 116 1 38.132 32.023 30.729 1.008 0.08773
2204 116 1 37.023 32.678 29.4 1.008 0.08773
2205 117 4 27.899 9.467 26.711 15.999 -0.35515
2206 117 2 27.317 9.53 27.95 12.011 0.03297
2207 117 2 28.199 10.67 26.13 12.011 0.01762
2208 117 2 26.999 11.549 25.914 12.011 -0.23743
2209 117 2 27.413 12.872 25.254 12.011 -0.24423
2210 117 3 27.061 8.135 28.462 12.011 -0.1837
2211 117 3 25.834 7.755 28.742 12.011 -0.23415
2212 117 1 25.022 8.443 28.604 1.008 0.12909
2213 117 1 25.624 6.767 29.108 1.008 0.12909
2214 117 1 27.931 7.506 28.571 1.008 0.15086
2215 117 1 26.324 10.056 27.841 1.008 0.07222
2216 117 1 27.881 10.071 28.712 1.008 0.07222
2217 117 1 28.967 11.206 26.74 1.008 0.09202
2218 117 1 28.716 10.457 25.159 1.008 0.09202
2219 117 1 26.565 11.823 26.906 1.008 0.10167
2220 117 1 26.239 11.079 25.271 1.008 0.10167
2221 117 1 26.685 13.645 25.577 1.008 0.08773
2222 117 1 28.419 13.155 25.666 1.008 0.08773
2223 117 1 27.427 12.751 24.156 1.008 0.08773
2224 118 4 8.833 20.587 8.743 15.999 -0.35515
2225 118 2 7.464 20.656 8.787 12.011 0.03297
2226 118 2 9.5 21.696 9.189 12.011 0.01762
2227 118 2 9.182 22.943 8.412 12.011 -0.23743
2228 118 2 9.973 24.138 8.965 12.011 -0.24423
2229 118 3 6.876 19.364 8.279 12.011 -0.1837
2230 118 3 6.084 19.371 7.229 12.011 -0.23415
2231 118 1 5.863 20.301 6.74 1.008 0.12909
2232 118 1 5.652 18.465 6.847 1.008 0.12909
2233 118 1 7.148 18.474 8.826 1.008 0.15086
2234 118 1 7.136 21.489 8.099 1.008 0.07222
2235 118 1 7.031 20.862 9.766 1.008 0.07222
2236 118 1 9.292 21.854 10.276 1.008 0.09202
2237 118 1 10.597 21.469 9.148 1.008 0.09202
2238 118 1 8.104 23.195 8.554 1.008 0.10167
2239 118 1 9.425 22.849 7.343 1.008 0.10167
2240 118 1 9.374 25.05 8.766 1.008 0.08773
2241 118 1 10.043 24.01 10.079 1.008 0.08773
2242 118 1 10.965 24.182 8.483 1.008 0.08773
2243 119 4 14.873 14.396 13.629 15.999 -0.35515
2244 119 2 15.428 15.419 14.353 12.011 0.03297
2245 119 2 15.731 13.397 13.256 12.011 0.01762
2246 119 2 16.865 13.869 12.389 12.011 -0.23743
2247 119 2 17.775 12.694 12.006 12.011 -0.24423
2248 119 3 14.364 16.43 14.7 12.011 -0.1837
2249 119 3 14.479 17.672 14.286 12.011 -0.23415
2250 119 1 15.334 17.958 13.703 1.008 0.12909
2251 119 1 13.736 18.412 14.519 1.008 0.12909
2252 119 1 13.537 16.061 15.288 1.008 0.15086
2253 119 1 16.2 15.926 13.702 1.008 0.07222
2254 119 1 15.931 15.129 15.276 1.008 0.07222
2255 119 1 16.127 12.876 14.162 1.008 0.09202
2256 119 1 15.127 12.613 12.729 1.008 0.09202
2257 119 1 17.502 14.573 12.976 1.008 0.10167
2258 119 1 16.518 14.34 11.457 1.008 0.10167
2259 119 1 18.795 13.102 11.852 1.008 0.08773
2260 119 1 17.814 11.996 12.885 1.008 0.08773
2261 119 1 17.385 12.203 11.096 1.008 0.08773
2262 120 4 14.702 32.292 17.974 15.999 -0.35515
2263 120 2 15.569 33.338 18.152 12.011 0.03297
2264 120 2 13.729 32.479 17.028 12.011 0.01762
2265 120 2 12.825 33.644 17.317 12.011 -0.23743
2266 120 2 11.758 33.782 16.221 12.011 -0.24423
2267 120 3 16.584 32.981 19.209 12.011 -0.1837
2268 120 3 16.678 33.707 20.3 12.011 -0.23415
2269 120 1 16.029 34.552 20.431 1.008 0.12909
2270 120 1 17.392 33.475 21.068 1.008 0.12909
2271 120 1 17.196 32.116 19.001 1.008 0.15086
2272 120 1 14.973 34.225 18.519 1.008 0.07222
2273 120 1 16.109 33.664 17.262 1.008 0.07222
2274 120 1 14.196 32.592 16.019 1.008 0.09202
2275 120 1 13.142 31.527 16.956 1.008 0.09202
2276 120 1 13.423 34.585 17.286 1.008 0.10167
2277 120 1 12.301 33.545 18.281 1.008 0.10167
2278 120 1 11.483 34.855 16.162 1.008 0.08773
2279 120 1 12.237 33.497 15.246 1.008 0.08773
2280 120 1 10.89 33.145 16.465 1.008 0.08773
2281 121 4 27.429 6.128 7.206 15.999 -0.35515
2282 121 2 26.868 5.653 8.363 12.011 0.03297
2283 121 2 28.368 7.112 7.359 12.011 0.01762
2284 121 2 27.839 8.349 8.03 12.011 -0.23743
2285 121 2 28.945 9.407 8.158 12.011 -0.24423
2286 121 3 25.869 4.571 8.035 12.011 -0.1837
2287 121 3 24.609 4.716 8.379 12.011 -0.23415
2288 121 1 24.299 5.607 8.892 1.008 0.12909
2289 121 1 23.877 3.962 8.157 1.008 0.12909
2290 121 1 26.261 3.709 7.516 1.008 0.15086
2291 121 1 26.317 6.506 8.857 1.008 0.07222
2292 121 1 27.566 5.255 9.101 1.008 0.07222
2293 121 1 29.249 6.714 7.92 1.008 0.09202
2294 121 1 28.773 7.353 6.343 1.008 0.09202
2295 121 1 27.534 8.095 9.074 1.008 0.10167
2296 121 1 27.003 8.806 7.479 1.008 0.10167
2297 121 1 28.712 10.021 9.052 1.008 0.08773
2298 121 1 29.909 8.866 8.355 1.008 0.08773
2299 121 1 28.984 10.016 7.237 1.008 0.08773
2300 122 4 13.44 10.779 15.929 15.999 -0.35515
2301 122 2 14.104 10.356 14.807 12.011 0.03297
2302 122 2 12.492 11.746 15.731 12.011 0.01762
2303 122 2 13.042 13.017 15.146 12.011 -0.23743
2304 122 2 11.924 14.054 14.963 12.011 -0.24423
2305 122 3 15.1 9.287 15.18 12.011 -0.1837
2306 122 3 16.38 9.472 14.944 12.011 -0.23415
2307 122 1 16.707 10.386 14.487 1.008 0.12909
2308 122 1 17.11 8.726 15.2 1.008 0.12909
2309 122 1 14.69 8.399 15.636 1.008 0.15086
2310 122 1 14.672 11.238 14.387 1.008 0.07222
2311 122 1 13.478 9.968 14.002 1.008 0.07222
2312 122 1 11.669 11.348 15.088 1.008 0.09202
2313 122 1 12 11.943 16.719 1.008 0.09202
2314 122 1 13.436 12.805 14.123 1.008 0.10167
2315 122 1 13.819 13.473 15.778 1.008 0.10167
2316 122 1 12.212 14.703 14.111 1.008 0.08773
2317 122 1 10.993 13.498 14.671 1.008 0.08773
2318 122 1 11.795 14.629 15.896 1.008 0.08773
2319 123 4 47.893 4.857 47.298 15.999 -0.35515
2320 123 2 48.255 4.369 48.527 12.011 0.03297
2321 123 2 47.618 3.918 46.341 12.011 0.01762
2322 123 2 48.779 3.013 46.036 12.011 -0.23743
2323 123 2 48.397 1.995 44.95 12.011 -0.24423
2324 123 3 48.511 5.516 49.472 12.011 -0.1837
2325 123 3 49.696 5.66 50.023 12.011 -0.23415
2326 123 1 50.474 4.956 49.796 1.008 0.12909
2327 123 1 49.905 6.467 50.7 1.008 0.12909
2328 123 1 47.677 6.179 49.647 1.008 0.15086
2329 123 1 49.218 3.792 48.401 1.008 0.07222
2330 123 1 47.539 3.696 49 1.008 0.07222
2331 123 1 46.727 3.315 46.644 1.008 0.09202
2332 123 1 47.284 4.462 45.42 1.008 0.09202
2333 123 1 49.023 2.415 46.946 1.008 0.10167
2334 123 1 49.663 3.563 45.679 1.008 0.10167
2335 123 1 49.01 1.086 45.12 1.008 0.08773
2336 123 1 47.321 1.718 45.111 1.008 0.08773
2337 123 1 48.574 2.433 43.952 1.008 0.08773
2338 124 4 8.142 14.464 7.47 15.999 -0.35515
2339 124 2 7.945 14.118 6.159 12.011 0.03297
2340 124 2 9.204 15.292 7.716 12.011 0.01762
2341 124 2 10.527 14.711 7.3 12.011 -0.23743
2342 124 2 11.668 15.691 7.615 12.011 -0.24423
2343 124 3 6.738 13.221 6.047 12.011 -0.1837
2344 124 3 6.866 12.008 5.558 12.011 -0.23415
2345 124 1 7.832 11.664 5.241 1.008 0.12909
2346 124 1 6.023 11.348 5.467 1.008 0.12909
2347 124 1 5.804 13.642 6.388 1.008 0.15086
2348 124 1 8.851 13.538 5.813 1.008 0.07222
2349 124 1 7.814 14.948 5.463 1.008 0.07222
2350 124 1 9.041 16.279 7.218 1.008 0.09202
2351 124 1 9.2 15.53 8.811 1.008 0.09202
2352 124 1 10.534 14.577 6.192 1.008 0.10167
2353 124 1 10.753 13.763 7.811 1.008 0.10167
2354 124 1 12.475 15.505 6.877 1.008 0.08773
2355 124 1 11.278 16.73 7.442 1.008 0.08773
2356 124 1 12.013 15.538 8.653 1.008 0.08773
2357 125 4 29.346 43.072 3.081 15.999 -0.35515
2358 125 2 30.165 43.605 4.041 12.011 0.03297
2359 125 2 28.043 42.875 3.452 12.011 0.01762
2360 125 2 27.883 41.937 4.616 12.011 -0.23743
2361 125 2 26.398 41.761 4.966 12.011 -0.24423
2362 125 3 31.556 43.774 3.483 12.011 -0.1837
2363 125 3 32.568 43.151 4.045 12.011 -0.23415
2364 125 1 32.396 42.525 4.9 1.008 0.12909
2365 125 1 33.569 43.254 3.668 1.008 0.12909
2366 125 1 31.644 44.42 2.623 1.008 0.15086
2367 125 1 30.215 42.874 4.901 1.008 0.07222
2368 125 1 29.85 44.563 4.456 1.008 0.07222
2369 125 1 27.558 43.857 3.677 1.008 0.09202
2370 125 1 27.49 42.494 2.554 1.008 0.09202
2371 125 1 28.36 42.391 5.517 1.008 0.10167
2372 125 1 28.298 40.938 4.415 1.008 0.10167
2373 125 1 26.339 41.536 6.05 1.008 0.08773
2374 125 1 25.891 42.748 4.791 1.008 0.08773
2375 125 1 25.965 40.951 4.351 1.008 0.08773
2376 126 4 38.088 32.602 42.171 15.999 -0.35515
2377 126 2 37.239 33.154 41.247 12.011 0.03297
2378 126 2 38.121 33.218 43.393 12.011 0.01762
2379 126 2 38.552 34.656 43.33 12.011 -0.23743
2380 126 2 38.572 35.274 44.736 12.011 -0.24423
2381 126 3 37.303 32.363 39.964 12.011 -0.1837
2382 126 3 37.678 32.951 38.849 12.011 -0.23415
2383 126 1 37.936 33.993 38.862 1.008 0.12909
2384 126 1 37.732 32.412 37.922 1.008 0.12909
2385 126 1 37.029 31.322 40.037 1.008 0.15086
2386 126 1 37.594 34.205 41.033 1.008 0.07222
2387 126 1 36.193 33.226 41.547 1.008 0.07222
2388 126 1 37.122 33.134 43.888 1.008 0.09202
2389 126 1 38.807 32.625 44.051 1.008 0.09202
2390 126 1 37.796 35.238 42.75 1.008 0.10167
2391 126 1 39.557 34.78 42.898 1.008 0.10167
2392 126 1 38.372 36.359 44.623 1.008 0.08773
2393 126 1 37.719 34.826 45.314 1.008 0.08773
2394 126 1 39.55 35.081 45.213 1.008 0.08773
2395 127 4 7.614 42.334 21.248 15.999 -0.35515
2396 127 2 6.391 42.869 20.938 12.011 0.03297
2397 127 2 8.347 43.022 22.177 12.011 0.01762
2398 127 2 8.672 44.431 21.764 12.011 -0.23743
2399 127 2 9.501 45.132 22.849 12.011 -0.24423
2400 127 3 5.7 41.999 19.919 12.011 -0.1837
2401 127 3 5.367 42.497 18.749 12.011 -0.23415
2402 127 1 5.591 43.523 18.528 1.008 0.12909
2403 127 1 4.875 41.898 18.005 1.008 0.12909
2404 127 1 5.513 40.979 20.219 1.008 0.15086
2405 127 1 6.564 43.886 20.477 1.008 0.07222
2406 127 1 5.709 43.013 21.777 1.008 0.07222
2407 127 1 7.816 43.019 23.16 1.008 0.09202
2408 127 1 9.285 42.437 22.367 1.008 0.09202
2409 127 1 7.723 45.012 21.678 1.008 0.10167
2410 127 1 9.245 44.476 20.825 1.008 0.10167
2411 127 1 9.279 46.217 22.785 1.008 0.08773
2412 127 1 9.134 44.765 23.845 1.008 0.08773
2413 127 1 10.574 44.92 22.692 1.008 0.08773
2414 128 4 25.496 19.349 25.201 15.999 -0.35515
2415 128 2 24.92 20.045 26.232 12.011 0.03297
2416 128 2 25.314 19.877 23.951 12.011 0.01762
2417 128 2 23.87 19.981 23.546 12.011 -0.23743
2418 128 2 23.749 20.571 22.133 12.011 -0.24423
2419 128 3 25.216 19.353 27.539 12.011 -0.1837
2420 128 3 24.228 18.915 28.288 12.011 -0.23415
2421 128 1 23.215 19.055 27.962 1.008 0.12909
2422 128 1 24.411 18.419 29.223 1.008 0.12909
2423 128 1 26.26 19.251 27.793 1.008 0.15086
2424 128 1 23.801 20.039 26.073 1.008 0.07222
2425 128 1 25.222 21.089 26.327 1.008 0.07222
2426 128 1 25.808 20.877 23.885 1.008 0.09202
2427 128 1 25.885 19.238 23.229 1.008 0.09202
2428 128 1 23.353 20.7 24.225 1.008 0.10167
2429 128 1 23.359 19.006 23.544 1.008 0.10167
2430 128 1 22.776 21.101 22.079 1.008 0.08773
2431 128 1 24.563 21.337 22.016 1.008 0.08773
2432 128 1 23.822 19.762 21.385 1.008 0.08773
2433 129 4 22.371 23.908 27.373 15.999 -0.35515
2434 129 2 21.944 23.068 26.377 12.011 0.03297
2435 129 2 23.602 23.627 27.902 12.011 0.01762
2436 129 2 23.69 22.263 28.527 12.011 -0.23743
2437 129 2 25.094 22.026 29.105 12.011 -0.24423
2438 129 3 20.587 23.51 25.888 12.011 -0.1837
2439 129 3 19.56 22.694 25.977 12.011 -0.23415
2440 129 1 19.696 21.716 26.398 1.008 0.12909
2441 129 1 18.584 22.984 25.636 1.008 0.12909
2442 129 1 20.535 24.508 25.48 1.008 0.15086
2443 129 1 21.842 22.032 26.817 1.008 0.07222
2444 129 1 22.603 22.982 25.513 1.008 0.07222
2445 129 1 24.39 23.746 27.118 1.008 0.09202
2446 129 1 23.836 24.425 28.653 1.008 0.09202
2447 129 1 23.549 21.49 27.735 1.008 0.10167
2448 129 1 22.966 22.123 29.345 1.008 0.10167
2449 129 1 25.286 20.934 29.067 1.008 0.08773
2450 129 1 25.83 22.528 28.422 1.008 0.08773
2451 129 1 25.142 22.418 30.137 1.008 0.08773
2452 130 4 47.229 34.496 25.483 15.999 -0.35515
2453 130 2 46.095 34.1 26.143 12.011 0.03297
2454 130 2 47.735 35.714 25.847 12.011 0.01762
2455 130 2 46.78 36.853 25.624 12.011 -0.23743
2456 130 2 47.421 38.184 26.045 12.011 -0.24423
2457 130 3 45.668 32.741 25.647 12.011 -0.1837
2458 130 3 44.486 32.587 25.093 12.011 -0.23415
2459 130 1 43.832 33.432 24.998 1.008 0.12909
2460 130 1 44.157 31.63 24.732 1.008 0.12909
2461 130 1 46.384 31.944 25.779 1.008 0.15086
2462 130 1 45.276 34.839 25.9 1.008 0.07222
2463 130 1 46.17 34.054 27.23 1.008 0.07222
2464 130 1 48.064 35.687 26.915 1.008 0.09202
2465 130 1 48.684 35.871 25.27 1.008 0.09202
2466 130 1 45.891 36.717 26.285 1.008 0.10167
2467 130 1 46.474 36.95 24.571 1.008 0.10167
2468 130 1 46.601 38.859 26.364 1.008 0.08773
2469 130 1 48.065 37.979 26.943 1.008 0.08773
2470 130 1 47.998 38.602 25.201 1.008 0.08773
2471 131 4 2.585 21.161 47.61 15.999 -0.35515
2472 131 2 3.519 21.518 46.673 12.011 0.03297
2473 131 2 1.647 22.113 47.909 12.011 0.01762
2474 131 2 2.233 23.383 48.458 12.011 -0.23743
2475 131 2 1.122 24.395 48.776 12.011 -0.24423
2476 131 3 4.469 20.37 46.441 12.011 -0.1837
2477 131 3 5.754 20.524 46.674 12.011 -0.23415
2478 131 1 6.117 21.47 47.029 1.008 0.12909
2479 131 1 6.452 19.723 46.518 1.008 0.12909
2480 131 1 4.023 19.453 46.086 1.008 0.15086
2481 131 1 4.109 22.389 47.084 1.008 0.07222
2482 131 1 3.125 21.829 45.704 1.008 0.07222
2483 131 1 1.025 22.331 47.006 1.008 0.09202
2484 131 1 0.927 21.659 48.638 1.008 0.09202
2485 131 1 2.868 23.86 47.673 1.008 0.10167
2486 131 1 2.809 23.22 49.381 1.008 0.10167
2487 131 1 1.557 25.409 48.664 1.008 0.08773
2488 131 1 0.324 24.276 47.995 1.008 0.08773
2489 131 1 0.741 24.219 49.798 1.008 0.08773
2490 132 4 38.689 27.74 6.73 15.999 -0.35515
2491 132 2 38.279 28.123 5.48 12.011 0.03297
2492 132 2 39.832 26.988 6.778 12.011 0.01762
2493 132 2 39.731 25.691 6.025 12.011 -0.23743
2494 132 2 41.044 24.902 6.133 12.011 -0.24423
2495 132 3 37.023 28.951 5.59 12.011 -0.1837
2496 132 3 35.919 28.549 5 12.011 -0.23415
2497 132 1 35.921 27.632 4.442 1.008 0.12909
2498 132 1 35.011 29.12 5.062 1.008 0.12909
2499 132 1 37.105 29.858 6.169 1.008 0.15086
2500 132 1 38.038 27.189 4.892 1.008 0.07222
2501 132 1 39.005 28.689 4.895 1.008 0.07222
2502 132 1 40.698 27.587 6.403 1.008 0.09202
2503 132 1 40.069 26.804 7.858 1.008 0.09202
2504 132 1 39.592 25.911 4.94 1.008 0.10167
2505 132 1 38.923 25.044 6.4 1.008 0.10167
2506 132 1 41.135 24.285 5.215 1.008 0.08773
2507 132 1 41.886 25.646 6.13 1.008 0.08773
2508 132 1 41.032 24.284 7.048 1.008 0.08773
2509 133 4 9.33 2.9 41.7 15.999 -0.35515
2510 133 2 10.067 1.75 41.806 12.011 0.03297
2511 133 2 8.017 2.803 42.076 12.011 0.01762
2512 133 2 7.233 1.804 41.273 12.011 -0.23743
2513 133 2 5.772 1.76 41.746 12.011 -0.24423
2514 133 3 11.486 2.015 41.371 12.011 -0.1837
2515 133 3 11.998 1.35 40.36 12.011 -0.23415
2516 133 1 11.399 0.619 39.85 1.008 0.12909
2517 133 1 13.006 1.519 40.029 1.008 0.12909
2518 133 1 12.02 2.766 41.935 1.008 0.15086
2519 133 1 9.619 0.984 41.106 1.008 0.07222
2520 133 1 10.098 1.295 42.797 1.008 0.07222
2521 133 1 7.95 2.562 43.166 1.008 0.09202
2522 133 1 7.566 3.826 41.991 1.008 0.09202
2523 133 1 7.647 0.784 41.456 1.008 0.10167
2524 133 1 7.227 2.037 40.197 1.008 0.10167
2525 133 1 5.391 0.738 41.544 1.008 0.08773
2526 133 1 5.774 1.912 42.859 1.008 0.08773
2527 133 1 5.187 2.532 41.217 1.008 0.08773
2528 134 4 41.209 40.368 30.051 15.999 -0.35515
2529 134 2 42.505 40.571 30.45 12.011 0.03297
2530 134 2 41.036 39.497 29.009 12.011 0.01762
2531 134 2 41.732 39.922 27.747 12.011 -0.23743
2532 134 2 41.484 38.903 26.625 12.011 -0.24423
2533 134 3 42.534 41.538 31.607 12.011 -0.1837
2534 134 3 43.19 42.672 31.497 12.011 -0.23415
2535 134 1 43.702 42.901 30.582 1.008 0.12909
2536 134 1 43.227 43.378 32.306 1.008 0.12909
2537 134 1 41.994 41.233 32.49 1.008 0.15086
2538 134 1 43.065 41.035 29.586 1.008 0.07222
2539 134 1 43.057 39.677 30.743 1.008 0.07222
2540 134 1 41.369 38.473 29.31 1.008 0.09202
2541 134 1 39.933 39.391 28.839 1.008 0.09202
2542 134 1 42.834 39.924 27.923 1.008 0.10167
2543 134 1 41.392 40.905 27.385 1.008 0.10167
2544 134 1 42.361 38.938 25.947 1.008 0.08773
2545 134 1 41.455 37.883 27.096 1.008 0.08773
2546 134 1 40.544 39.15 26.1 1.008 0.08773
2547 135 4 39.394 13.688 18.003 15.999 -0.35515
2548 135 2 38.974 14.324 16.864 12.011 0.03297
2549 135 2 38.408 13.134 18.774 12.011 0.01762
2550 135 2 37.404 14.134 19.276 12.011 -0.23743
2551 135 2 36.339 13.44 20.138 12.011 -0.24423
2552 135 3 40.166 14.868 16.117 12.011 -0.1837
2553 135 3 40.266 16.159 15.892 12.011 -0.23415
2554 135 1 39.495 16.818 16.242 1.008 0.12909
2555 135 1 41.105 16.572 15.363 1.008 0.12909
2556 135 1 40.897 14.138 15.8 1.008 0.15086
2557 135 1 38.322 15.194 17.172 1.008 0.07222
2558 135 1 38.389 13.719 16.17 1.008 0.07222
2559 135 1 37.894 12.319 18.207 1.008 0.09202
2560 135 1 38.905 12.605 19.628 1.008 0.09202
2561 135 1 36.859 14.57 18.406 1.008 0.10167
2562 135 1 37.863 14.925 19.888 1.008 0.10167
2563 135 1 35.404 14.03 20.046 1.008 0.08773
2564 135 1 36.15 12.427 19.691 1.008 0.08773
2565 135 1 36.689 13.38 21.184 1.008 0.08773
2566 136 4 25.453 1.052 20.311 15.999 -0.35515
2567 136 2 25.904 2.186 19.687 12.011 0.03297
2568 136 2 24.107 1 20.553 12.011 0.01762
2569 136 2 23.611 2.111 21.435 12.011 -0.23743
2570 136 2 22.098 1.98 21.668 12.011 -0.24423
2571 136 3 27.394 2.091 19.477 12.011 -0.1837
2572 136 3 28.191 2.987 20.018 12.011 -0.23415
2573 136 1 27.772 3.781 20.607 1.008 0.12909
2574 136 1 29.256 2.942 19.885 1.008 0.12909
2575 136 1 27.734 1.263 18.875 1.008 0.15086
2576 136 1 25.697 3.063 20.368 1.008 0.07222
2577 136 1 25.442 2.414 18.725 1.008 0.07222
2578 136 1 23.546 0.993 19.586 1.008 0.09202
2579 136 1 23.884 0 21.009 1.008 0.09202
2580 136 1 23.758 3.085 20.911 1.008 0.10167
2581 136 1 24.099 2.12 22.422 1.008 0.10167
2582 136 1 21.7 3.002 21.837 1.008 0.08773
2583 136 1 21.644 1.588 20.718 1.008 0.08773
2584 136 1 21.911 1.315 22.529 1.008 0.08773
2585 137 4 50.112 9.419 29.43 15.999 -0.35515
2586 137 2 49.337 9.557 28.308 12.011 0.03297
2587 137 2 50.263 10.546 30.192 12.011 0.01762
2588 137 2 50.904 11.689 29.457 12.011 -0.23743
2589 137 2 51.046 12.91 30.378 12.011 -0.24423
2590 137 3 49.255 8.237 27.583 12.011 -0.1837
2591 137 3 49.691 8.139 26.347 12.011 -0.23415
2592 137 1 50.103 9.003 25.861 1.008 0.12909
2593 137 1 49.644 7.21 25.808 1.008 0.12909
2594 137 1 48.829 7.418 28.143 1.008 0.15086
2595 137 1 49.842 10.304 27.627 1.008 0.07222
2596 137 1 48.32 9.914 28.474 1.008 0.07222
2597 137 1 49.273 10.859 30.608 1.008 0.09202
2598 137 1 50.865 10.265 31.095 1.008 0.09202
2599 137 1 50.233 12.008 28.624 1.008 0.10167
2600 137 1 51.907 11.44 29.078 1.008 0.10167
2601 137 1 51.01 13.814 29.736 1.008 0.08773
2602 137 1 50.147 12.931 31.051 1.008 0.08773
2603 137 1 0.007243 12.841 30.942 1.008 0.08773
2604 138 4 40.837 7.667 21.298 15.999 -0.35515
2605 138 2 41.842 8.46 20.807 12.011 0.03297
2606 138 2 39.574 8.188 21.217 12.011 0.01762
2607 138 2 39.406 9.48 21.968 12.011 -0.23743
2608 138 2 37.965 9.995 21.837 12.011 -0.24423
2609 138 3 43.165 7.75 20.953 12.011 -0.1837
2610 138 3 44.123 8.29 21.673 12.011 -0.23415
2611 138 1 43.955 9.235 22.153 1.008 0.12909
2612 138 1 45.074 7.805 21.793 1.008 0.12909
2613 138 1 43.251 6.804 20.44 1.008 0.15086
2614 138 1 41.876 9.403 21.428 1.008 0.07222
2615 138 1 41.738 8.767 19.766 1.008 0.07222
2616 138 1 39.285 8.322 20.146 1.008 0.09202
2617 138 1 38.863 7.41 21.599 1.008 0.09202
2618 138 1 40.055 10.258 21.501 1.008 0.10167
2619 138 1 39.627 9.378 23.041 1.008 0.10167
2620 138 1 38.001 11.101 21.917 1.008 0.08773
2621 138 1 37.607 9.737 20.804 1.008 0.08773
2622 138 1 37.336 9.543 22.625 1.008 0.08773
2623 139 4 29.581 43.749 28.175 15.999 -0.35515
2624 139 2 28.984 43.992 29.385 12.011 0.03297
2625 139 2 30.894 43.367 28.223 12.011 0.01762
2626 139 2 31.794 44.386 28.864 12.011 -0.23743
2627 139 2 33.248 43.891 28.873 12.011 -0.24423
2628 139 3 27.545 44.387 29.17 12.011 -0.1837
2629 139 3 27.119 45.561 29.582 12.011 -0.23415
2630 139 1 27.802 46.231 30.069 1.008 0.12909
2631 139 1 26.099 45.868 29.441 1.008 0.12909
2632 139 1 26.925 43.658 28.672 1.008 0.15086
2633 139 1 29.522 44.859 29.869 1.008 0.07222
2634 139 1 29.005 43.166 30.098 1.008 0.07222
2635 139 1 30.986 42.384 28.749 1.008 0.09202
2636 139 1 31.222 43.15 27.173 1.008 0.09202
2637 139 1 31.503 44.507 29.935 1.008 0.10167
2638 139 1 31.776 45.355 28.342 1.008 0.10167
2639 139 1 33.748 44.353 29.749 1.008 0.08773
2640 139 1 33.225 42.78 29.038 1.008 0.08773
2641 139 1 33.74 44.165 27.923 1.008 0.08773
2642 140 4 33.305 34.593 35.804 15.999 -0.35515
2643 140 2 33.32 35.18 34.566 12.011 0.03297
2644 140 2 33.489 33.237 35.822 12.011 0.01762
2645 140 2 32.442 32.477 35.057 12.011 -0.23743
2646 140 2 32.711 30.966 35.131 12.011 -0.24423
2647 140 3 33.119 36.668 34.708 12.011 -0.1837
2648 140 3 32.089 37.249 34.134 12.011 -0.23415
2649 140 1 31.396 36.657 33.567 1.008 0.12909
2650 140 1 31.922 38.307 34.22 1.008 0.12909
2651 140 1 33.859 37.19 35.296 1.008 0.15086
2652 140 1 32.455 34.761 33.972 1.008 0.07222
2653 140 1 34.221 35.017 33.974 1.008 0.07222
2654 140 1 34.509 32.985 35.438 1.008 0.09202
2655 140 1 33.511 32.914 36.896 1.008 0.09202
2656 140 1 32.513 32.749 33.977 1.008 0.10167
2657 140 1 31.426 32.653 35.44 1.008 0.10167
2658 140 1 32.302 30.512 34.206 1.008 0.08773
2659 140 1 33.825 30.821 35.121 1.008 0.08773
2660 140 1 32.241 30.55 36.04 1.008 0.08773
2661 141 4 45.701 42.651 29.336 15.999 -0.35515
2662 141 2 45.668 41.615 28.439 12.011 0.03297
2663 141 2 45.244 43.855 28.871 12.011 0.01762
2664 141 2 46.019 44.38 27.695 12.011 -0.23743
2665 141 2 45.455 45.733 27.239 12.011 -0.24423
2666 141 3 46.186 40.36 29.096 12.011 -0.1837
2667 141 3 47.243 39.751 28.605 12.011 -0.23415
2668 141 1 47.73 40.154 27.738 1.008 0.12909
2669 141 1 47.633 38.856 29.054 1.008 0.12909
2670 141 1 45.64 40.022 29.964 1.008 0.15086
2671 141 1 46.356 41.876 27.582 1.008 0.07222
2672 141 1 44.692 41.391 28.007 1.008 0.07222
2673 141 1 44.158 43.778 28.617 1.008 0.09202
2674 141 1 45.277 44.581 29.725 1.008 0.09202
2675 141 1 45.886 43.684 26.832 1.008 0.10167
2676 141 1 47.087 44.523 27.921 1.008 0.10167
2677 141 1 45.655 45.825 26.151 1.008 0.08773
2678 141 1 44.341 45.7 27.381 1.008 0.08773
2679 141 1 45.928 46.547 27.817 1.008 0.08773
2680 142 4 38.116 16.982 46.825 15.999 -0.35515
2681 142 2 38.927 17.561 47.767 12.011 0.03297
2682 142 2 37.755 15.684 47.066 12.011 0.01762
2683 142 2 38.923 14.741 47.157 12.011 -0.23743
2684 142 2 38.438 13.307 47.419 12.011 -0.24423
2685 142 3 39.225 18.985 47.372 12.011 -0.1837
2686 142 3 40.468 19.363 47.17 12.011 -0.23415
2687 142 1 41.264 18.652 47.289 1.008 0.12909
2688 142 1 40.709 20.371 46.888 1.008 0.12909
2689 142 1 38.37 19.636 47.272 1.008 0.15086
2690 142 1 39.9 16.987 47.787 1.008 0.07222
2691 142 1 38.54 17.568 48.786 1.008 0.07222
2692 142 1 37.138 15.627 47.997 1.008 0.09202
2693 142 1 37.054 15.371 46.25 1.008 0.09202
2694 142 1 39.548 15.021 48.038 1.008 0.10167
2695 142 1 39.527 14.725 46.237 1.008 0.10167
2696 142 1 39.242 12.784 47.977 1.008 0.08773
2697 142 1 37.541 13.372 48.092 1.008 0.08773
2698 142 1 38.21 12.811 46.46 1.008 0.08773
2699 143 4 31.693 46.774 7.201 15.999 -0.35515
2700 143 2 31.786 45.62 7.935 12.011 0.03297
2701 143 2 32.598 47.753 7.513 12.011 0.01762
2702 143 2 32.504 48.229 8.935 12.011 -0.23743
2703 143 2 33.541 49.329 9.204 12.011 -0.24423
2704 143 3 30.739 44.638 7.471 12.011 -0.1837
2705 143 3 29.829 44.202 8.313 12.011 -0.23415
2706 143 1 29.839 44.55 9.329 1.008 0.12909
2707 143 1 29.073 43.503 8.009 1.008 0.12909
2708 143 1 30.799 44.34 6.435 1.008 0.15086
2709 143 1 31.576 45.877 9.015 1.008 0.07222
2710 143 1 32.754 45.118 7.91 1.008 0.07222
2711 143 1 33.634 47.398 7.29 1.008 0.09202
2712 143 1 32.437 48.601 6.797 1.008 0.09202
2713 143 1 32.765 47.386 9.619 1.008 0.10167
2714 143 1 31.512 48.639 9.18 1.008 0.10167
2715 143 1 33.804 49.278 10.281 1.008 0.08773
2716 143 1 34.462 49.076 8.613 1.008 0.08773
2717 143 1 33.12 50.312 8.928 1.008 0.08773
2718 144 4 17.588 7.216 32.778 15.999 -0.35515
2719 144 2 17.562 7.005 31.424 12.011 0.03297
2720 144 2 17.613 8.525 33.177 12.011 0.01762
2721 144 2 18.811 9.283 32.678 12.011 -0.23743
2722 144 2 18.773 10.736 33.173 12.011 -0.24423
2723 144 3 17.523 5.524 31.141 12.011 -0.1837
2724 144 3 18.486 4.964 30.445 12.011 -0.23415
2725 144 1 19.296 5.567 30.081 1.008 0.12909
2726 144 1 18.483 3.911 30.229 1.008 0.12909
2727 144 1 16.675 4.99 31.543 1.008 0.15086
2728 144 1 18.517 7.424 30.989 1.008 0.07222
2729 144 1 16.736 7.473 30.886 1.008 0.07222
2730 144 1 16.671 9.037 32.862 1.008 0.09202
2731 144 1 17.573 8.537 34.297 1.008 0.09202
2732 144 1 18.769 9.336 31.564 1.008 0.10167
2733 144 1 19.762 8.842 33.013 1.008 0.10167
2734 144 1 19.306 11.355 32.422 1.008 0.08773
2735 144 1 17.698 11.061 33.185 1.008 0.08773
2736 144 1 19.243 10.801 34.171 1.008 0.08773
2737 145 4 20.308 3.936 2.487 15.999 -0.35515
2738 145 2 20.681 3.338 3.662 12.011 0.03297
2739 145 2 20.07 5.283 2.553 12.011 0.01762
2740 145 2 18.967 5.652 3.506 12.011 -0.23743
2741 145 2 18.754 7.173 3.518 12.011 -0.24423
2742 145 3 20.92 1.867 3.429 12.011 -0.1837
2743 145 3 20.209 0.975 4.083 12.011 -0.23415
2744 145 1 19.462 1.303 4.78 1.008 0.12909
2745 145 1 20.358 51.9078 3.935 1.008 0.12909
2746 145 1 21.688 1.622 2.711 1.008 0.15086
2747 145 1 19.828 3.447 4.394 1.008 0.07222
2748 145 1 21.568 3.751 4.144 1.008 0.07222
2749 145 1 21.011 5.823 2.822 1.008 0.09202
2750 145 1 19.835 5.635 1.516 1.008 0.09202
2751 145 1 19.275 5.376 4.543 1.008 0.10167
2752 145 1 18.006 5.184 3.244 1.008 0.10167
2753 145 1 18.368 7.445 4.522 1.008 0.08773
2754 145 1 19.761 7.657 3.396 1.008 0.08773
2755 145 1 18.051 7.457 2.714 1.008 0.08773
2756 146 4 27.284 36.542 6.843 15.999 -0.35515
2757 146 2 28.181 35.69 7.432 12.011 0.03297
2758 146 2 27.799 37.723 6.38 12.011 0.01762
2759 146 2 28.436 38.563 7.452 12.011 -0.23743
2760 146 2 28.981 39.87 6.858 12.011 -0.24423
2761 146 3 27.472 34.435 7.876 12.011 -0.1837
2762 146 3 27.472 34.096 9.146 12.011 -0.23415
2763 146 1 27.979 34.718 9.859 1.008 0.12909
2764 146 1 26.974 33.208 9.489 1.008 0.12909
2765 146 1 26.985 33.867 7.097 1.008 0.15086
2766 146 1 28.6 36.203 8.347 1.008 0.07222
2767 146 1 29.031 35.396 6.815 1.008 0.07222
2768 146 1 28.531 37.523 5.558 1.008 0.09202
2769 146 1 26.967 38.281 5.879 1.008 0.09202
2770 146 1 29.32 38.019 7.862 1.008 0.10167
2771 146 1 27.733 38.83 8.255 1.008 0.10167
2772 146 1 29.842 40.184 7.484 1.008 0.08773
2773 146 1 29.372 39.638 5.831 1.008 0.08773
2774 146 1 28.182 40.632 6.842 1.008 0.08773
2775 147 4 40.281 18.883 8.744 15.999 -0.35515
2776 147 2 39.813 19.21 9.99 12.011 0.03297
2777 147 2 41.241 17.908 8.705 12.011 0.01762
2778 147 2 42.486 18.259 9.47 12.011 -0.23743
2779 147 2 43.516 17.124 9.372 12.011 -0.24423
2780 147 3 38.758 20.281 9.871 12.011 -0.1837
2781 147 3 38.932 21.442 10.463 12.011 -0.23415
2782 147 1 39.827 21.619 11.029 1.008 0.12909
2783 147 1 38.197 22.222 10.393 1.008 0.12909
2784 147 1 37.89 20.025 9.283 1.008 0.15086
2785 147 1 40.677 19.629 10.587 1.008 0.07222
2786 147 1 39.394 18.388 10.572 1.008 0.07222
2787 147 1 40.818 16.942 9.076 1.008 0.09202
2788 147 1 41.478 17.711 7.628 1.008 0.09202
2789 147 1 42.234 18.353 10.553 1.008 0.10167
2790 147 1 42.967 19.177 9.099 1.008 0.10167
2791 147 1 44.131 17.155 10.295 1.008 0.08773
2792 147 1 42.95 16.154 9.37 1.008 0.08773
2793 147 1 44.129 17.256 8.463 1.008 0.08773
2794 148 4 44.624 32.156 44.821 15.999 -0.35515
2795 148 2 43.526 32.799 44.31 12.011 0.03297
2796 148 2 45.503 31.653 43.901 12.011 0.01762
2797 148 2 44.892 30.634 42.98 12.011 -0.23743
2798 148 2 45.939 30.112 41.985 12.011 -0.24423
2799 148 3 42.664 33.306 45.438 12.011 -0.1837
2800 148 3 41.422 32.889 45.553 12.011 -0.23415
2801 148 1 41.031 32.19 44.839 1.008 0.12909
2802 148 1 40.787 33.234 46.347 1.008 0.12909
2803 148 1 43.133 34.006 46.113 1.008 0.15086
2804 148 1 42.928 32.046 43.717 1.008 0.07222
2805 148 1 43.735 33.636 43.643 1.008 0.07222
2806 148 1 45.954 32.488 43.31 1.008 0.09202
2807 148 1 46.367 31.214 44.464 1.008 0.09202
2808 148 1 44.102 31.127 42.365 1.008 0.10167
2809 148 1 44.484 29.766 43.519 1.008 0.10167
2810 148 1 45.399 29.814 41.063 1.008 0.08773
2811 148 1 46.615 30.97 41.724 1.008 0.08773
2812 148 1 46.489 29.265 42.434 1.008 0.08773
2813 149 4 45.028 1.68 35.82 15.999 -0.35515
2814 149 2 44.146 2.179 34.898 12.011 0.03297
2815 149 2 45.862 2.596 36.404 12.011 0.01762
2816 149 2 46.744 3.316 35.423 12.011 -0.23743
2817 149 2 47.654 4.316 36.152 12.011 -0.24423
2818 149 3 43.291 1.061 34.356 12.011 -0.1837
2819 149 3 43.306 0.787 33.071 12.011 -0.23415
2820 149 1 43.929 1.365 32.414 1.008 0.12909
2821 149 1 42.708 51.9818 32.659 1.008 0.12909
2822 149 1 42.696 0.529 35.082 1.008 0.15086
2823 149 1 44.745 2.613 34.044 1.008 0.07222
2824 149 1 43.482 2.968 35.254 1.008 0.07222
2825 149 1 45.265 3.329 37 1.008 0.09202
2826 149 1 46.476 2.053 37.169 1.008 0.09202
2827 149 1 46.106 3.923 34.738 1.008 0.10167
2828 149 1 47.391 2.632 34.853 1.008 0.10167
2829 149 1 47.873 5.141 35.443 1.008 0.08773
2830 149 1 47.067 4.746 37.007 1.008 0.08773
2831 149 1 48.574 3.805 36.488 1.008 0.08773
2832 150 4 43.894 29.127 33.514 15.999 -0.35515
2833 150 2 44.945 29.977 33.289 12.011 0.03297
2834 150 2 42.663 29.716 33.619 12.011 0.01762
2835 150 2 42.564 30.707 34.745 12.011 -0.23743
2836 150 2 41.156 31.317 34.804 12.011 -0.24423
2837 150 3 46.224 29.185 33.184 12.011 -0.1837
2838 150 3 47.207 29.411 34.027 12.011 -0.23415
2839 150 1 47.09 30.161 34.787 1.008 0.12909
2840 150 1 48.128 28.861 33.974 1.008 0.12909
2841 150 1 46.26 28.449 32.394 1.008 0.15086
2842 150 1 45.029 30.668 34.179 1.008 0.07222
2843 150 1 44.865 30.607 32.403 1.008 0.07222
2844 150 1 42.389 30.202 32.65 1.008 0.09202
2845 150 1 41.906 28.898 33.741 1.008 0.09202
2846 150 1 43.259 31.556 34.544 1.008 0.10167
2847 150 1 42.772 30.255 35.727 1.008 0.10167
2848 150 1 41.255 32.335 35.233 1.008 0.08773
2849 150 1 40.79 31.424 33.747 1.008 0.08773
2850 150 1 40.497 30.673 35.414 1.008 0.08773
2851 151 4 46.641 5.02 15.217 15.999 -0.35515
2852 151 2 46.605 4.742 13.876 12.011 0.03297
2853 151 2 46.983 6.303 15.55 12.011 0.01762
2854 151 2 48.348 6.707 15.067 12.011 -0.23743
2855 151 2 48.662 8.151 15.486 12.011 -0.24423
2856 151 3 46.202 3.303 13.668 12.011 -0.1837
2857 151 3 47.014 2.479 13.044 12.011 -0.23415
2858 151 1 47.961 2.837 12.687 1.008 0.12909
2859 151 1 46.752 1.449 12.883 1.008 0.12909
2860 151 1 45.235 3.023 14.058 1.008 0.15086
2861 151 1 47.647 4.881 13.464 1.008 0.07222
2862 151 1 45.94 5.368 13.279 1.008 0.07222
2863 151 1 46.211 7.015 15.168 1.008 0.09202
2864 151 1 46.913 6.392 16.666 1.008 0.09202
2865 151 1 48.355 6.701 13.951 1.008 0.10167
2866 151 1 49.147 6.063 15.467 1.008 0.10167
2867 151 1 49.356 8.57 14.729 1.008 0.08773
2868 151 1 47.704 8.734 15.433 1.008 0.08773
2869 151 1 49.103 8.156 16.499 1.008 0.08773
2870 152 4 9.183 14.859 39.233 15.999 -0.35515
2871 152 2 8.509 15.635 38.327 12.011 0.03297
2872 152 2 10.513 14.661 38.976 12.011 0.01762
2873 152 2 10.777 13.983 37.661 12.011 -0.23743
2874 152 2 12.286 13.789 37.449 12.011 -0.24423
2875 152 3 7.067 15.771 38.749 12.011 -0.1837
2876 152 3 6.109 15.348 37.955 12.011 -0.23415
2877 152 1 6.361 14.907 37.01 1.008 0.12909
2878 152 1 5.074 15.433 38.232 1.008 0.12909
2879 152 1 6.9 16.224 39.715 1.008 0.15086
2880 152 1 8.537 15.108 37.328 1.008 0.07222
2881 152 1 8.91 16.637 38.169 1.008 0.07222
2882 152 1 11.059 15.636 39.026 1.008 0.09202
2883 152 1 10.935 14.064 39.824 1.008 0.09202
2884 152 1 10.433 14.647 36.833 1.008 0.10167
2885 152 1 10.302 12.992 37.591 1.008 0.10167
2886 152 1 12.47 13.796 36.355 1.008 0.08773
2887 152 1 12.806 14.682 37.89 1.008 0.08773
2888 152 1 12.608 12.842 37.916 1.008 0.08773
2889 153 4 45.216 10.418 42.205 15.999 -0.35515
2890 153 2 46.437 9.936 42.598 12.011 0.03297
2891 153 2 45.206 11.703 41.734 12.011 0.01762
2892 153 2 45.68 12.716 42.739 12.011 -0.23743
2893 153 2 45.632 14.13 42.143 12.011 -0.24423
2894 153 3 46.29 8.513 43.076 12.011 -0.1837
2895 153 3 46.617 8.198 44.31 12.011 -0.23415
2896 153 1 46.987 8.96 44.97 1.008 0.12909
2897 153 1 46.522 7.193 44.676 1.008 0.12909
2898 153 1 45.91 7.809 42.352 1.008 0.15086
2899 153 1 46.796 10.565 43.464 1.008 0.07222
2900 153 1 47.222 9.958 41.842 1.008 0.07222
2901 153 1 45.815 11.771 40.799 1.008 0.09202
2902 153 1 44.161 11.933 41.4 1.008 0.09202
2903 153 1 46.752 12.518 42.977 1.008 0.10167
2904 153 1 45.07 12.72 43.656 1.008 0.10167
2905 153 1 46.421 14.727 42.645 1.008 0.08773
2906 153 1 45.903 14.047 41.056 1.008 0.08773
2907 153 1 44.627 14.563 42.294 1.008 0.08773
2908 154 4 38.835 6.083 1.427 15.999 -0.35515
2909 154 2 38.497 5.62 2.672 12.011 0.03297
2910 154 2 40.155 6.395 1.246 12.011 0.01762
2911 154 2 40.652 7.47 2.172 12.011 -0.23743
2912 154 2 42.134 7.77 1.903 12.011 -0.24423
2913 154 3 37.022 5.308 2.713 12.011 -0.1837
2914 154 3 36.243 5.934 3.567 12.011 -0.23415
2915 154 1 36.665 6.665 4.231 1.008 0.12909
2916 154 1 35.189 5.732 3.617 1.008 0.12909
2917 154 1 36.677 4.563 2.012 1.008 0.15086
2918 154 1 38.706 6.442 3.417 1.008 0.07222
2919 154 1 39.037 4.736 3.012 1.008 0.07222
2920 154 1 40.782 5.475 1.349 1.008 0.09202
2921 154 1 40.286 6.7 0.175 1.008 0.09202
2922 154 1 40.599 7.098 3.223 1.008 0.10167
2923 154 1 40.097 8.414 2.062 1.008 0.10167
2924 154 1 42.578 8.123 2.856 1.008 0.08773
2925 154 1 42.631 6.8 1.631 1.008 0.08773
2926 154 1 42.221 8.526 1.102 1.008 0.08773
2927 155 4 17.512 19.395 4.602 15.999 -0.35515
2928 155 2 18.195 18.816 3.564 12.011 0.03297
2929 155 2 18.224 20.285 5.36 12.011 0.01762
2930 155 2 19.43 19.682 6.023 12.011 -0.23743
2931 155 2 20.169 20.736 6.86 12.011 -0.24423
2932 155 3 17.282 17.876 2.818 12.011 -0.1837
2933 155 3 17.584 16.6 2.73 12.011 -0.23415
2934 155 1 18.482 16.236 3.192 1.008 0.12909
2935 155 1 16.951 15.909 2.205 1.008 0.12909
2936 155 1 16.399 18.321 2.384 1.008 0.15086
2937 155 1 19.044 18.213 4 1.008 0.07222
2938 155 1 18.633 19.505 2.841 1.008 0.07222
2939 155 1 18.523 21.163 4.736 1.008 0.09202
2940 155 1 17.523 20.714 6.123 1.008 0.09202
2941 155 1 20.151 19.353 5.236 1.008 0.10167
2942 155 1 19.173 18.846 6.692 1.008 0.10167
2943 155 1 21.24 20.448 6.884 1.008 0.08773
2944 155 1 20.089 21.716 6.316 1.008 0.08773
2945 155 1 19.73 20.781 7.872 1.008 0.08773
2946 156 4 27.355 23.403 20.293 15.999 -0.35515
2947 156 2 26.234 22.643 20.502 12.011 0.03297
2948 156 2 27.155 24.601 19.664 12.011 0.01762
2949 156 2 26.556 24.468 18.291 12.011 -0.23743
2950 156 2 26.37 25.85 17.648 12.011 -0.24423
2951 156 3 26.611 21.367 21.212 12.011 -0.1837
2952 156 3 26.368 20.205 20.647 12.011 -0.23415
2953 156 1 25.901 20.175 19.68 1.008 0.12909
2954 156 1 26.626 19.282 21.13 1.008 0.12909
2955 156 1 27.077 21.485 22.179 1.008 0.15086
2956 156 1 25.804 22.373 19.493 1.008 0.07222
2957 156 1 25.435 23.122 21.07 1.008 0.07222
2958 156 1 26.518 25.264 20.301 1.008 0.09202
2959 156 1 28.143 25.128 19.618 1.008 0.09202
2960 156 1 25.534 24.03 18.382 1.008 0.10167
2961 156 1 27.181 23.867 17.613 1.008 0.10167
2962 156 1 25.511 25.776 16.95 1.008 0.08773
2963 156 1 26.087 26.567 18.465 1.008 0.08773
2964 156 1 27.3 26.147 17.131 1.008 0.08773
2965 157 4 32.057 29.975 44.934 15.999 -0.35515
2966 157 2 32.612 29.277 43.893 12.011 0.03297
2967 157 2 31.27 29.248 45.786 12.011 0.01762
2968 157 2 30.086 28.61 45.116 12.011 -0.23743
2969 157 2 29.25 27.822 46.135 12.011 -0.24423
2970 157 3 33.457 30.203 43.055 12.011 -0.1837
2971 157 3 33.17 30.383 41.785 12.011 -0.23415
2972 157 1 32.333 29.867 41.353 1.008 0.12909
2973 157 1 33.755 31.037 41.165 1.008 0.12909
2974 157 1 34.278 30.684 43.565 1.008 0.15086
2975 157 1 31.771 28.885 43.25 1.008 0.07222
2976 157 1 33.226 28.419 44.171 1.008 0.07222
2977 157 1 31.886 28.473 46.305 1.008 0.09202
2978 157 1 30.94 29.935 46.609 1.008 0.09202
2979 157 1 30.449 27.861 44.372 1.008 0.10167
2980 157 1 29.421 29.346 44.638 1.008 0.10167
2981 157 1 28.755 26.995 45.587 1.008 0.08773
2982 157 1 29.961 27.366 46.875 1.008 0.08773
2983 157 1 28.518 28.496 46.615 1.008 0.08773
2984 158 4 27.595 42.588 14.033 15.999 -0.35515
2985 158 2 28.77 41.975 14.382 12.011 0.03297
2986 158 2 27.097 43.484 14.941 12.011 0.01762
2987 158 2 26.795 42.875 16.282 12.011 -0.23743
2988 158 2 26.234 43.937 17.24 12.011 -0.24423
2989 158 3 29.196 41.034 13.283 12.011 -0.1837
2990 158 3 29.333 39.751 13.535 12.011 -0.23415
2991 158 1 29.14 39.382 14.525 1.008 0.12909
2992 158 1 29.635 39.059 12.771 1.008 0.12909
2993 158 1 29.368 41.483 12.317 1.008 0.15086
2994 158 1 28.58 41.368 15.315 1.008 0.07222
2995 158 1 29.606 42.64 14.599 1.008 0.07222
2996 158 1 27.804 44.342 15.055 1.008 0.09202
2997 158 1 26.176 43.941 14.494 1.008 0.09202
2998 158 1 27.747 42.518 16.742 1.008 0.10167
2999 158 1 26.058 42.06 16.221 1.008 0.10167
3000 158 1 26.512 43.631 18.27 1.008 0.08773
3001 158 1 26.758 44.905 17.016 1.008 0.08773
3002 158 1 25.139 44.011 17.112 1.008 0.08773
3003 159 4 45.47 32.14 39.11 15.999 -0.35515
3004 159 2 44.284 32.805 38.941 12.011 0.03297
3005 159 2 46.59 32.924 39.166 12.011 0.01762
3006 159 2 46.816 33.74 37.924 12.011 -0.23743
3007 159 2 48.092 34.583 38.058 12.011 -0.24423
3008 159 3 43.146 31.815 38.913 12.011 -0.1837
3009 159 3 42.377 31.73 37.85 12.011 -0.23415
3010 159 1 42.565 32.37 37.008 1.008 0.12909
3011 159 1 41.56 31.034 37.804 1.008 0.12909
3012 159 1 43.026 31.209 39.798 1.008 0.15086
3013 159 1 44.32 33.332 37.942 1.008 0.07222
3014 159 1 44.053 33.562 39.691 1.008 0.07222
3015 159 1 46.546 33.588 40.063 1.008 0.09202
3016 159 1 47.464 32.25 39.364 1.008 0.09202
3017 159 1 45.977 34.467 37.809 1.008 0.10167
3018 159 1 46.921 33.118 37.021 1.008 0.10167
3019 159 1 47.955 35.492 37.437 1.008 0.08773
3020 159 1 48.17 34.91 39.13 1.008 0.08773
3021 159 1 48.966 33.989 37.735 1.008 0.08773
3022 160 4 32.8 23.366 25.337 15.999 -0.35515
3023 160 2 32.395 22.396 26.217 12.011 0.03297
3024 160 2 32.522 23.128 24.018 12.011 0.01762
3025 160 2 33.16 21.876 23.485 12.011 -0.23743
3026 160 2 32.81 21.683 22.002 12.011 -0.24423
3027 160 3 32.757 22.804 27.623 12.011 -0.1837
3028 160 3 33.56 22.049 28.338 12.011 -0.23415
3029 160 1 33.953 21.144 27.915 1.008 0.12909
3030 160 1 33.834 22.316 29.342 1.008 0.12909
3031 160 1 32.321 23.728 27.973 1.008 0.15086
3032 160 1 32.953 21.446 25.968 1.008 0.07222
3033 160 1 31.331 22.154 26.199 1.008 0.07222
3034 160 1 31.415 23.095 23.862 1.008 0.09202
3035 160 1 32.857 24.025 23.435 1.008 0.09202
3036 160 1 32.733 20.994 24.019 1.008 0.10167
3037 160 1 34.258 21.891 23.568 1.008 0.10167
3038 160 1 32.824 20.592 21.799 1.008 0.08773
3039 160 1 31.758 22.046 21.853 1.008 0.08773
3040 160 1 33.536 22.229 21.374 1.008 0.08773
3041 161 4 4.135 28.874 4.433 15.999 -0.35515
3042 161 2 5.412 28.507 4.097 12.011 0.03297
3043 161 2 3.18 27.903 4.293 12.011 0.01762
3044 161 2 3.044 27.391 2.886 12.011 -0.23743
3045 161 2 1.951 26.315 2.807 12.011 -0.24423
3046 161 3 6.347 29.67 4.315 12.011 -0.1837
3047 161 3 7.033 30.158 3.306 12.011 -0.23415
3048 161 1 6.922 29.723 2.331 1.008 0.12909
3049 161 1 7.706 30.986 3.434 1.008 0.12909
3050 161 1 6.4 30.049 5.325 1.008 0.15086
3051 161 1 5.421 28.246 2.998 1.008 0.07222
3052 161 1 5.815 27.646 4.631 1.008 0.07222
3053 161 1 3.39 27.058 4.993 1.008 0.09202
3054 161 1 2.209 28.329 4.657 1.008 0.09202
3055 161 1 3.994 26.887 2.589 1.008 0.10167
3056 161 1 2.781 28.185 2.17 1.008 0.10167
3057 161 1 2.22 25.631 1.976 1.008 0.08773
3058 161 1 1.988 25.726 3.763 1.008 0.08773
3059 161 1 0.968 26.794 2.647 1.008 0.08773
3060 162 4 47.868 16.764 11.348 15.999 -0.35515
3061 162 2 48.867 15.924 11.765 12.011 0.03297
3062 162 2 46.635 16.545 11.9 12.011 0.01762
3063 162 2 46.085 15.174 11.621 12.011 -0.23743
3064 162 2 44.7 15.008 12.264 12.011 -0.24423
3065 162 3 50.16 16.296 11.083 12.011 -0.1837
3066 162 3 50.777 15.418 10.324 12.011 -0.23415
3067 162 1 50.353 14.439 10.195 1.008 0.12909
3068 162 1 51.698 15.656 9.827 1.008 0.12909
3069 162 1 50.517 17.298 11.264 1.008 0.15086
3070 162 1 48.591 14.874 11.454 1.008 0.07222
3071 162 1 49.048 15.9 12.841 1.008 0.07222
3072 162 1 46.673 16.73 13.002 1.008 0.09202
3073 162 1 45.945 17.338 11.511 1.008 0.09202
3074 162 1 46.743 14.413 12.105 1.008 0.10167
3075 162 1 45.979 14.971 10.544 1.008 0.10167
3076 162 1 44.572 13.931 12.497 1.008 0.08773
3077 162 1 44.71 15.57 13.237 1.008 0.08773
3078 162 1 43.923 15.378 11.572 1.008 0.08773
3079 163 4 38.249 32.402 3.3 15.999 -0.35515
3080 163 2 37.949 31.796 4.492 12.011 0.03297
3081 163 2 37.977 31.671 2.175 12.011 0.01762
3082 163 2 38.725 30.368 2.109 12.011 -0.23743
3083 163 2 38.376 29.612 0.819 12.011 -0.24423
3084 163 3 38.288 32.724 5.631 12.011 -0.1837
3085 163 3 39.169 32.357 6.536 12.011 -0.23415
3086 163 1 39.64 31.396 6.456 1.008 0.12909
3087 163 1 39.429 32.998 7.357 1.008 0.12909
3088 163 1 37.771 33.672 5.638 1.008 0.15086
3089 163 1 38.592 30.872 4.584 1.008 0.07222
3090 163 1 36.913 31.477 4.615 1.008 0.07222
3091 163 1 36.877 31.49 2.094 1.008 0.09202
3092 163 1 38.218 32.313 1.288 1.008 0.09202
3093 163 1 38.391 29.714 2.949 1.008 0.10167
3094 163 1 39.817 30.505 2.13 1.008 0.10167
3095 163 1 38.49 28.528 1.03 1.008 0.08773
3096 163 1 37.292 29.805 0.597 1.008 0.08773
3097 163 1 39.039 29.946 0.001 1.008 0.08773
3098 164 4 8.773 44.835 17.21 15.999 -0.35515
3099 164 2 8.582 44.973 15.86 12.011 0.03297
3100 164 2 8.444 45.924 17.972 12.011 0.01762
3101 164 2 9.23 47.158 17.628 12.011 -0.23743
3102 164 2 8.813 48.33 18.529 12.011 -0.24423
3103 164 3 8.973 43.696 15.16 12.011 -0.1837
3104 164 3 9.93 43.708 14.259 12.011 -0.23415
3105 164 1 10.428 44.631 14.028 1.008 0.12909
3106 164 1 10.228 42.812 13.745 1.008 0.12909
3107 164 1 8.425 42.812 15.45 1.008 0.15086
3108 164 1 9.262 45.799 15.496 1.008 0.07222
3109 164 1 7.57 45.233 15.547 1.008 0.07222
3110 164 1 7.348 46.127 17.893 1.008 0.09202
3111 164 1 8.596 45.642 19.047 1.008 0.09202
3112 164 1 8.981 47.468 16.585 1.008 0.10167
3113 164 1 10.315 47.017 17.747 1.008 0.10167
3114 164 1 8.98 49.264 17.954 1.008 0.08773
3115 164 1 7.709 48.236 18.717 1.008 0.08773
3116 164 1 9.402 48.308 19.463 1.008 0.08773
3117 165 4 17.865 24.669 46.883 15.999 -0.35515
3118 165 2 17.295 25.842 46.46 12.011 0.03297
3119 165 2 18.701 24.768 47.963 12.011 0.01762
3120 165 2 19.88 25.672 47.731 12.011 -0.23743
3121 165 2 20.772 25.724 48.979 12.011 -0.24423
3122 165 3 16.396 25.572 45.28 12.011 -0.1837
3123 165 3 16.635 26.156 44.127 12.011 -0.23415
3124 165 1 17.471 26.823 44.035 1.008 0.12909
3125 165 1 16.011 25.981 43.27 1.008 0.12909
3126 165 1 15.58 24.888 45.456 1.008 0.15086
3127 165 1 18.125 26.53 46.124 1.008 0.07222
3128 165 1 16.716 26.384 47.208 1.008 0.07222
3129 165 1 18.126 25.105 48.86 1.008 0.09202
3130 165 1 19.039 23.732 48.224 1.008 0.09202
3131 165 1 19.513 26.714 47.571 1.008 0.10167
3132 165 1 20.506 25.343 46.887 1.008 0.10167
3133 165 1 21.272 26.715 48.987 1.008 0.08773
3134 165 1 20.1 25.673 49.878 1.008 0.08773
3135 165 1 21.5 24.894 48.951 1.008 0.08773
3136 166 4 3.499 8.105 4.523 15.999 -0.35515
3137 166 2 4.794 8.512 4.71 12.011 0.03297
3138 166 2 3.069 7.091 5.337 12.011 0.01762
3139 166 2 3.864 5.824 5.19 12.011 -0.23743
3140 166 2 3.319 4.734 6.125 12.011 -0.24423
3141 166 3 5.115 9.636 3.757 12.011 -0.1837
3142 166 3 6.085 9.497 2.882 12.011 -0.23415
3143 166 1 6.644 8.58 2.852 1.008 0.12909
3144 166 1 6.334 10.281 2.191 1.008 0.12909
3145 166 1 4.506 10.522 3.851 1.008 0.15086
3146 166 1 5.47 7.64 4.47 1.008 0.07222
3147 166 1 5.047 8.842 5.718 1.008 0.07222
3148 166 1 3.074 7.43 6.402 1.008 0.09202
3149 166 1 1.987 6.911 5.108 1.008 0.09202
3150 166 1 4.914 6.013 5.517 1.008 0.10167
3151 166 1 3.84 5.425 4.164 1.008 0.10167
3152 166 1 4.166 4.066 6.383 1.008 0.08773
3153 166 1 2.98 5.239 7.069 1.008 0.08773
3154 166 1 2.5 4.189 5.622 1.008 0.08773
3155 167 4 46.839 49.685 33.257 15.999 -0.35515
3156 167 2 45.772 49.514 32.414 12.011 0.03297
3157 167 2 47.536 48.551 33.574 12.011 0.01762
3158 167 2 46.704 47.507 34.264 12.011 -0.23743
3159 167 2 47.556 46.272 34.595 12.011 -0.24423
3160 167 3 45.117 50.846 32.148 12.011 -0.1837
3161 167 3 43.857 51.034 32.475 12.011 -0.23415
3162 167 1 43.304 50.235 32.93 1.008 0.12909
3163 167 1 43.367 51.973 32.297 1.008 0.12909
3164 167 1 45.743 51.596 31.689 1.008 0.15086
3165 167 1 45.022 48.848 32.934 1.008 0.07222
3166 167 1 45.996 49.05 31.452 1.008 0.07222
3167 167 1 48.009 48.125 32.655 1.008 0.09202
3168 167 1 48.404 48.856 34.215 1.008 0.09202
3169 167 1 45.91 47.154 33.564 1.008 0.10167
3170 167 1 46.264 47.869 35.206 1.008 0.10167
3171 167 1 46.877 45.394 34.597 1.008 0.08773
3172 167 1 48.292 46.135 33.758 1.008 0.08773
3173 167 1 48.052 46.413 35.572 1.008 0.08773
3174 168 4 41.368 32.776 40.055 15.999 -0.35515
3175 168 2 41.396 33.927 40.798 12.011 0.03297
3176 168 2 40.505 31.807 40.49 12.011 0.01762
3177 168 2 40.795 31.323 41.883 12.011 -0.23743
3178 168 2 39.793 30.234 42.295 12.011 -0.24423
3179 168 3 42.378 34.898 40.192 12.011 -0.1837
3180 168 3 43.404 35.319 40.897 12.011 -0.23415
3181 168 1 43.536 34.966 41.902 1.008 0.12909
3182 168 1 44.119 36.01 40.489 1.008 0.12909
3183 168 1 42.174 35.202 39.176 1.008 0.15086
3184 168 1 41.754 33.663 41.836 1.008 0.07222
3185 168 1 40.441 34.441 40.913 1.008 0.07222
3186 168 1 39.452 32.175 40.42 1.008 0.09202
3187 168 1 40.551 30.96 39.757 1.008 0.09202
3188 168 1 40.645 32.166 42.599 1.008 0.10167
3189 168 1 41.806 30.899 41.983 1.008 0.10167
3190 168 1 39.686 30.284 43.399 1.008 0.08773
3191 168 1 38.8 30.501 41.843 1.008 0.08773
3192 168 1 40.157 29.248 41.959 1.008 0.08773
3193 169 4 34.026 41.867 46.277 15.999 -0.35515
3194 169 2 34.488 41.88 47.567 12.011 0.03297
3195 169 2 33.6 43.071 45.784 12.011 0.01762
3196 169 2 32.462 43.67 46.562 12.011 -0.23743
3197 169 2 32.035 45.01 45.945 12.011 -0.24423
3198 169 3 34.932 40.493 47.96 12.011 -0.1837
3199 169 3 34.359 39.885 48.975 12.011 -0.23415
3200 169 1 33.577 40.382 49.517 1.008 0.12909
3201 169 1 34.655 38.897 49.276 1.008 0.12909
3202 169 1 35.722 40.064 47.364 1.008 0.15086
3203 169 1 33.632 42.182 48.239 1.008 0.07222
3204 169 1 35.31 42.567 47.77 1.008 0.07222
3205 169 1 34.456 43.788 45.736 1.008 0.09202
3206 169 1 33.311 42.914 44.713 1.008 0.09202
3207 169 1 32.811 43.904 47.596 1.008 0.10167
3208 169 1 31.575 43.018 46.587 1.008 0.10167
3209 169 1 31.62 45.633 46.764 1.008 0.08773
3210 169 1 32.962 45.517 45.565 1.008 0.08773
3211 169 1 31.294 44.832 45.146 1.008 0.08773
3212 170 4 26.035 5.592 33.29 15.999 -0.35515
3213 170 2 27.085 5.046 32.598 12.011 0.03297
3214 170 2 24.899 4.83 33.349 12.011 0.01762
3215 170 2 24.312 4.519 32.001 12.011 -0.23743
3216 170 2 23.04 3.671 32.15 12.011 -0.24423
3217 170 3 28.26 5.991 32.632 12.011 -0.1837
3218 170 3 28.753 6.465 31.51 12.011 -0.23415
3219 170 1 28.314 6.174 30.574 1.008 0.12909
3220 170 1 29.589 7.139 31.505 1.008 0.12909
3221 170 1 28.641 6.234 33.612 1.008 0.15086
3222 170 1 26.763 4.919 31.523 1.008 0.07222
3223 170 1 27.426 4.071 32.946 1.008 0.07222
3224 170 1 25.104 3.884 33.91 1.008 0.09202
3225 170 1 24.159 5.376 33.99 1.008 0.09202
3226 170 1 25.035 3.892 31.426 1.008 0.10167
3227 170 1 24.043 5.425 31.436 1.008 0.10167
3228 170 1 22.947 3.052 31.234 1.008 0.08773
3229 170 1 23.198 2.976 33.019 1.008 0.08773
3230 170 1 22.168 4.332 32.293 1.008 0.08773
3231 171 4 9.653 18.084 41.672 15.999 -0.35515
3232 171 2 9.517 18.931 42.741 12.011 0.03297
3233 171 2 9.356 16.77 41.911 12.011 0.01762
3234 171 2 10.216 16.142 42.973 12.011 -0.23743
3235 171 2 9.83 14.67 43.178 12.011 -0.24423
3236 171 3 9.864 20.337 42.32 12.011 -0.1837
3237 171 3 10.85 20.974 42.912 12.011 -0.23415
3238 171 1 11.403 20.486 43.692 1.008 0.12909
3239 171 1 11.118 21.976 42.632 1.008 0.12909
3240 171 1 9.261 20.755 41.528 1.008 0.15086
3241 171 1 10.25 18.608 43.536 1.008 0.07222
3242 171 1 8.531 18.952 43.207 1.008 0.07222
3243 171 1 8.275 16.665 42.177 1.008 0.09202
3244 171 1 9.457 16.218 40.941 1.008 0.09202
3245 171 1 10.02 16.651 43.947 1.008 0.10167
3246 171 1 11.288 16.174 42.724 1.008 0.10167
3247 171 1 10.065 14.411 44.231 1.008 0.08773
3248 171 1 8.718 14.591 43.046 1.008 0.08773
3249 171 1 10.385 14.038 42.462 1.008 0.08773
3250 172 4 43.267 1.594 44.597 15.999 -0.35515
3251 172 2 44.23 2.482 44.192 12.011 0.03297
3252 172 2 43.066 1.508 45.949 12.011 0.01762
3253 172 2 44.287 1.079 46.712 12.011 -0.23743
3254 172 2 43.981 0.997 48.215 12.011 -0.24423
3255 172 3 44.325 2.474 42.687 12.011 -0.1837
3256 172 3 45.457 2.147 42.104 12.011 -0.23415
3257 172 1 46.307 1.888 42.706 1.008 0.12909
3258 172 1 45.552 2.134 41.034 1.008 0.12909
3259 172 1 43.426 2.746 42.156 1.008 0.15086
3260 172 1 45.219 2.135 44.612 1.008 0.07222
3261 172 1 44.09 3.514 44.516 1.008 0.07222
3262 172 1 42.687 2.485 46.34 1.008 0.09202
3263 172 1 42.218 0.795 46.119 1.008 0.09202
3264 172 1 45.078 1.858 46.601 1.008 0.10167
3265 172 1 44.661 0.093 46.395 1.008 0.10167
3266 172 1 44.928 1.201 48.756 1.008 0.08773
3267 172 1 43.262 1.825 48.459 1.008 0.08773
3268 172 1 43.572 0 48.458 1.008 0.08773
3269 173 4 12.759 21.921 3.033 15.999 -0.35515
3270 173 2 12.069 22.916 2.39 12.011 0.03297
3271 173 2 11.994 20.952 3.625 12.011 0.01762
3272 173 2 11.065 21.48 4.681 12.011 -0.23743
3273 173 2 10.25 20.336 5.302 12.011 -0.24423
3274 173 3 13.041 23.895 1.782 12.011 -0.1837
3275 173 3 13.017 25.157 2.148 12.011 -0.23415
3276 173 1 12.302 25.482 2.88 1.008 0.12909
3277 173 1 13.698 25.876 1.731 1.008 0.12909
3278 173 1 13.728 23.488 1.055 1.008 0.15086
3279 173 1 11.45 23.463 3.16 1.008 0.07222
3280 173 1 11.385 22.588 1.606 1.008 0.07222
3281 173 1 11.418 20.394 2.846 1.008 0.09202
3282 173 1 12.692 20.187 4.054 1.008 0.09202
3283 173 1 10.322 22.163 4.204 1.008 0.10167
3284 173 1 11.598 21.99 5.498 1.008 0.10167
3285 173 1 9.285 20.764 5.642 1.008 0.08773
3286 173 1 10.029 19.597 4.486 1.008 0.08773
3287 173 1 10.818 19.884 6.135 1.008 0.08773
3288 174 4 20.337 17.872 14.666 15.999 -0.35515
3289 174 2 19.715 18.868 13.961 12.011 0.03297
3290 174 2 21.168 17.059 13.943 12.011 0.01762
3291 174 2 20.473 16.325 12.831 12.011 -0.23743
3292 174 2 21.466 15.431 12.074 12.011 -0.24423
3293 174 3 18.849 19.682 14.89 12.011 -0.1837
3294 174 3 17.554 19.763 14.677 12.011 -0.23415
3295 174 1 17.122 19.247 13.841 1.008 0.12909
3296 174 1 16.915 20.336 15.323 1.008 0.12909
3297 174 1 19.361 20.168 15.707 1.008 0.15086
3298 174 1 19.048 18.383 13.189 1.008 0.07222
3299 174 1 20.373 19.554 13.426 1.008 0.07222
3300 174 1 22.025 17.653 13.54 1.008 0.09202
3301 174 1 21.643 16.34 14.659 1.008 0.09202
3302 174 1 20.097 17.066 12.086 1.008 0.10167
3303 174 1 19.655 15.683 13.192 1.008 0.10167
3304 174 1 21.099 15.339 11.03 1.008 0.08773
3305 174 1 22.451 15.969 12.045 1.008 0.08773
3306 174 1 21.538 14.449 12.574 1.008 0.08773
3307 175 4 44.731 18.701 28.292 15.999 -0.35515
3308 175 2 43.922 18.567 27.194 12.011 0.03297
3309 175 2 45.833 17.889 28.324 12.011 0.01762
3310 175 2 45.5 16.423 28.305 12.011 -0.23743
3311 175 2 46.783 15.579 28.351 12.011 -0.24423
3312 175 3 42.766 19.53 27.296 12.011 -0.1837
3313 175 3 41.533 19.075 27.317 12.011 -0.23415
3314 175 1 41.359 18.017 27.26 1.008 0.12909
3315 175 1 40.692 19.739 27.389 1.008 0.12909
3316 175 1 43.027 20.576 27.35 1.008 0.15086
3317 175 1 43.509 17.516 27.194 1.008 0.07222
3318 175 1 44.404 18.72 26.228 1.008 0.07222
3319 175 1 46.517 18.142 27.476 1.008 0.09202
3320 175 1 46.42 18.152 29.241 1.008 0.09202
3321 175 1 45.004 16.175 27.336 1.008 0.10167
3322 175 1 44.872 16.119 29.156 1.008 0.10167
3323 175 1 46.568 14.623 27.83 1.008 0.08773
3324 175 1 47.567 16.124 27.758 1.008 0.08773
3325 175 1 47.085 15.419 29.401 1.008 0.08773
3326 176 4 15.425 17.081 7.205 15.999 -0.35515
3327 176 2 15.626 18.432 7.091 12.011 0.03297
3328 176 2 16.551 16.304 7.151 12.011 0.01762
3329 176 2 17.315 16.44 5.863 12.011 -0.23743
3330 176 2 18.555 15.535 5.874 12.011 -0.24423
3331 176 3 14.304 19.15 7.182 12.011 -0.1837
3332 176 3 13.891 19.894 6.179 12.011 -0.23415
3333 176 1 14.501 19.984 5.301 1.008 0.12909
3334 176 1 12.953 20.417 6.218 1.008 0.12909
3335 176 1 13.751 19.007 8.098 1.008 0.15086
3336 176 1 16.069 18.631 6.071 1.008 0.07222
3337 176 1 16.302 18.875 7.823 1.008 0.07222
3338 176 1 17.214 16.533 8.021 1.008 0.09202
3339 176 1 16.236 15.241 7.316 1.008 0.09202
3340 176 1 17.697 17.485 5.777 1.008 0.10167
3341 176 1 16.713 16.169 4.983 1.008 0.10167
3342 176 1 19.318 16.012 5.227 1.008 0.08773
3343 176 1 18.955 15.522 6.924 1.008 0.08773
3344 176 1 18.281 14.526 5.517 1.008 0.08773
3345 177 4 9.04 47.431 40.298 15.999 -0.35515
3346 177 2 9.86 47.605 41.382 12.011 0.03297
3347 177 2 9.568 46.708 39.262 12.011 0.01762
3348 177 2 10.809 47.317 38.673 12.011 -0.23743
3349 177 2 11.334 46.457 37.515 12.011 -0.24423
3350 177 3 9.14 48.404 42.439 12.011 -0.1837
3351 177 3 9.63 49.556 42.838 12.011 -0.23415
3352 177 1 10.544 49.921 42.407 1.008 0.12909
3353 177 1 9.137 50.145 43.589 1.008 0.12909
3354 177 1 8.228 47.969 42.82 1.008 0.15086
3355 177 1 10.762 48.196 41.044 1.008 0.07222
3356 177 1 10.234 46.692 41.846 1.008 0.07222
3357 177 1 9.771 45.659 39.594 1.008 0.09202
3358 177 1 8.768 46.601 38.483 1.008 0.09202
3359 177 1 11.615 47.319 39.445 1.008 0.10167
3360 177 1 10.638 48.332 38.283 1.008 0.10167
3361 177 1 12.433 46.604 37.466 1.008 0.08773
3362 177 1 11.144 45.382 37.78 1.008 0.08773
3363 177 1 10.835 46.753 36.575 1.008 0.08773
3364 178 4 41.921 12.004 10.64 15.999 -0.35515
3365 178 2 41.411 12.535 11.795 12.011 0.03297
3366 178 2 42.803 10.969 10.798 12.011 0.01762
3367 178 2 44.027 11.337 11.59 12.011 -0.23743
3368 178 2 44.969 10.131 11.716 12.011 -0.24423
3369 178 3 40.451 13.649 11.46 12.011 -0.1837
3370 178 3 40.681 14.866 11.899 12.011 -0.23415
3371 178 1 41.553 15.058 12.495 1.008 0.12909
3372 178 1 40.013 15.678 11.675 1.008 0.12909
3373 178 1 39.6 13.372 10.856 1.008 0.15086
3374 178 1 42.269 12.972 12.386 1.008 0.07222
3375 178 1 40.896 11.833 12.453 1.008 0.07222
3376 178 1 42.286 10.096 11.267 1.008 0.09202
3377 178 1 43.085 10.606 9.775 1.008 0.09202
3378 178 1 43.721 11.599 12.631 1.008 0.10167
3379 178 1 44.598 12.159 11.131 1.008 0.10167
3380 178 1 45.531 10.249 12.666 1.008 0.08773
3381 178 1 44.33 9.211 11.808 1.008 0.08773
3382 178 1 45.641 10.091 10.841 1.008 0.08773
3383 179 4 46.237 41.771 35.824 15.999 -0.35515
3384 179 2 45.258 41.19 36.588 12.011 0.03297
3385 179 2 46.948 40.922 35.02 12.011 0.01762
3386 179 2 47.679 39.848 35.777 12.011 -0.23743
3387 179 2 48.459 38.944 34.81 12.011 -0.24423
3388 179 3 44.558 42.247 37.404 12.011 -0.1837
3389 179 3 44.566 42.175 38.716 12.011 -0.23415
3390 179 1 45.072 41.36 39.198 1.008 0.12909
3391 179 1 44.075 42.914 39.321 1.008 0.12909
3392 179 1 44.073 43.033 36.843 1.008 0.15086
3393 179 1 45.755 40.466 37.298 1.008 0.07222
3394 179 1 44.499 40.629 36.04 1.008 0.07222
3395 179 1 46.272 40.465 34.256 1.008 0.09202
3396 179 1 47.663 41.544 34.421 1.008 0.09202
3397 179 1 46.934 39.188 36.283 1.008 0.10167
3398 179 1 48.398 40.256 36.504 1.008 0.10167
3399 179 1 48.527 37.941 35.28 1.008 0.08773
3400 179 1 47.846 38.843 33.874 1.008 0.08773
3401 179 1 49.455 39.379 34.616 1.008 0.08773
3402 180 4 43.306 15.027 45.799 15.999 -0.35515
3403 180 2 42.401 16.055 45.747 12.011 0.03297
3404 180 2 43.076 14.079 46.759 12.011 0.01762
3405 180 2 43.082 14.627 48.159 12.011 -0.23743
3406 180 2 42.828 13.505 49.177 12.011 -0.24423
3407 180 3 42.777 17.005 44.638 12.011 -0.1837
3408 180 3 43.045 18.263 44.914 12.011 -0.23415
3409 180 1 42.993 18.604 45.931 1.008 0.12909
3410 180 1 43.315 18.96 44.143 1.008 0.12909
3411 180 1 42.807 16.583 43.645 1.008 0.15086
3412 180 1 42.455 16.615 46.727 1.008 0.07222
3413 180 1 41.36 15.765 45.604 1.008 0.07222
3414 180 1 42.111 13.553 46.553 1.008 0.09202
3415 180 1 43.855 13.282 46.64 1.008 0.09202
3416 180 1 42.235 15.344 48.273 1.008 0.10167
3417 180 1 44.038 15.105 48.423 1.008 0.10167
3418 180 1 42.335 13.965 50.059 1.008 0.08773
3419 180 1 42.1 12.787 48.713 1.008 0.08773
3420 180 1 43.784 13.022 49.444 1.008 0.08773
3421 181 4 38.116 18.489 28.12 15.999 -0.35515
3422 181 2 37.036 19.273 27.81 12.011 0.03297
3423 181 2 37.856 17.4 28.907 12.011 0.01762
3424 181 2 37.277 17.752 30.249 12.011 -0.23743
3425 181 2 37.022 16.482 31.075 12.011 -0.24423
3426 181 3 37.475 20.418 26.932 12.011 -0.1837
3427 181 3 37.3 21.657 27.334 12.011 -0.23415
3428 181 1 36.844 21.845 28.288 1.008 0.12909
3429 181 1 37.604 22.491 26.729 1.008 0.12909
3430 181 1 37.926 20.144 25.991 1.008 0.15086
3431 181 1 36.629 19.701 28.773 1.008 0.07222
3432 181 1 36.208 18.766 27.313 1.008 0.07222
3433 181 1 37.18 16.692 28.367 1.008 0.09202
3434 181 1 38.815 16.831 29.024 1.008 0.09202
3435 181 1 36.279 18.228 30.1 1.008 0.10167
3436 181 1 37.939 18.405 30.838 1.008 0.10167
3437 181 1 36.174 16.698 31.757 1.008 0.08773
3438 181 1 36.694 15.677 30.364 1.008 0.08773
3439 181 1 37.938 16.208 31.627 1.008 0.08773
3440 182 4 16.276 7.472 39.61 15.999 -0.35515
3441 182 2 16.082 6.737 38.47 12.011 0.03297
3442 182 2 17.369 8.296 39.609 12.011 0.01762
3443 182 2 18.672 7.567 39.432 12.011 -0.23743
3444 182 2 19.848 8.555 39.451 12.011 -0.24423
3445 182 3 14.84 5.894 38.615 12.011 -0.1837
3446 182 3 14.923 4.584 38.537 12.011 -0.23415
3447 182 1 15.879 4.124 38.37 1.008 0.12909
3448 182 1 14.055 3.96 38.637 1.008 0.12909
3449 182 1 13.921 6.434 38.783 1.008 0.15086
3450 182 1 16.967 6.045 38.348 1.008 0.07222
3451 182 1 15.996 7.308 37.545 1.008 0.07222
3452 182 1 17.254 9.081 38.821 1.008 0.09202
3453 182 1 17.361 8.869 40.573 1.008 0.09202
3454 182 1 18.687 7.09 38.424 1.008 0.10167
3455 182 1 18.851 6.822 40.222 1.008 0.10167
3456 182 1 20.657 8.117 38.831 1.008 0.08773
3457 182 1 19.504 9.499 38.949 1.008 0.08773
3458 182 1 20.172 8.726 40.493 1.008 0.08773
3459 183 4 13.362 24.391 31.437 15.999 -0.35515
3460 183 2 12.873 24.626 32.696 12.011 0.03297
3461 183 2 13.863 25.481 30.779 12.011 0.01762
3462 183 2 12.852 26.573 30.568 12.011 -0.23743
3463 183 2 13.484 27.755 29.818 12.011 -0.24423
3464 183 3 12.372 23.335 33.294 12.011 -0.1837
3465 183 3 11.111 23.222 33.648 12.011 -0.23415
3466 183 1 10.445 24.052 33.507 1.008 0.12909
3467 183 1 10.728 22.314 34.076 1.008 0.12909
3468 183 1 13.104 22.549 33.4 1.008 0.15086
3469 183 1 11.998 25.335 32.601 1.008 0.07222
3470 183 1 13.572 25.076 33.401 1.008 0.07222
3471 183 1 14.754 25.879 31.325 1.008 0.09202
3472 183 1 14.275 25.125 29.8 1.008 0.09202
3473 183 1 12.535 26.973 31.56 1.008 0.10167
3474 183 1 11.981 26.237 29.984 1.008 0.10167
3475 183 1 12.943 28.672 30.13 1.008 0.08773
3476 183 1 14.547 27.848 30.169 1.008 0.08773
3477 183 1 13.415 27.584 28.729 1.008 0.08773
3478 184 4 17.576 41.872 3.658 15.999 -0.35515
3479 184 2 18.124 42.498 4.747 12.011 0.03297
3480 184 2 17.546 40.505 3.708 12.011 0.01762
3481 184 2 18.906 39.877 3.829 12.011 -0.23743
3482 184 2 18.791 38.346 3.87 12.011 -0.24423
3483 184 3 18.074 43.992 4.552 12.011 -0.1837
3484 184 3 19.189 44.69 4.542 12.011 -0.23415
3485 184 1 20.128 44.188 4.674 1.008 0.12909
3486 184 1 19.182 45.755 4.405 1.008 0.12909
3487 184 1 17.091 44.419 4.426 1.008 0.15086
3488 184 1 19.207 42.185 4.818 1.008 0.07222
3489 184 1 17.663 42.268 5.708 1.008 0.07222
3490 184 1 16.888 40.169 4.547 1.008 0.09202
3491 184 1 17.022 40.145 2.784 1.008 0.09202
3492 184 1 19.36 40.178 4.804 1.008 0.10167
3493 184 1 19.57 40.138 2.991 1.008 0.10167
3494 184 1 19.653 37.966 4.456 1.008 0.08773
3495 184 1 17.854 38.093 4.435 1.008 0.08773
3496 184 1 18.782 37.947 2.841 1.008 0.08773
3497 185 4 42.631 28.5 38.878 15.999 -0.35515
3498 185 2 43.305 27.715 37.98 12.011 0.03297
3499 185 2 41.355 28.104 39.175 12.011 0.01762
3500 185 2 40.443 28.069 37.981 12.011 -0.23743
3501 185 2 39.031 27.626 38.395 12.011 -0.24423
3502 185 3 44.693 28.266 37.765 12.011 -0.1837
3503 185 3 45.07 28.645 36.564 12.011 -0.23415
3504 185 1 44.385 28.557 35.743 1.008 0.12909
3505 185 1 46.052 29.041 36.384 1.008 0.12909
3506 185 1 45.319 28.322 38.643 1.008 0.15086
3507 185 1 42.751 27.758 36.996 1.008 0.07222
3508 185 1 43.399 26.661 38.246 1.008 0.07222
3509 185 1 41.373 27.106 39.679 1.008 0.09202
3510 185 1 40.959 28.802 39.958 1.008 0.09202
3511 185 1 40.811 27.295 37.265 1.008 0.10167
3512 185 1 40.352 29.048 37.487 1.008 0.10167
3513 185 1 38.573 27.123 37.518 1.008 0.08773
3514 185 1 39.143 26.861 39.21 1.008 0.08773
3515 185 1 38.447 28.505 38.72 1.008 0.08773
3516 186 4 8.732 39.727 34.636 15.999 -0.35515
3517 186 2 8.891 40.437 33.474 12.011 0.03297
3518 186 2 9.072 38.403 34.576 12.011 0.01762
3519 186 2 8.273 37.621 33.571 12.011 -0.23743
3520 186 2 8.704 36.147 33.569 12.011 -0.24423
3521 186 3 8.491 41.874 33.699 12.011 -0.1837
3522 186 3 7.514 42.401 32.995 12.011 -0.23415
3523 186 1 7.006 41.802 32.263 1.008 0.12909
3524 186 1 7.209 43.421 33.136 1.008 0.12909
3525 186 1 9.05 42.406 34.454 1.008 0.15086
3526 186 1 8.199 39.994 32.699 1.008 0.07222
3527 186 1 9.894 40.43 33.046 1.008 0.07222
3528 186 1 10.165 38.299 34.367 1.008 0.09202
3529 186 1 8.946 37.975 35.604 1.008 0.09202
3530 186 1 8.496 38.009 32.548 1.008 0.10167
3531 186 1 7.191 37.651 33.774 1.008 0.10167
3532 186 1 8.519 35.751 32.549 1.008 0.08773
3533 186 1 9.812 36.119 33.752 1.008 0.08773
3534 186 1 8.137 35.593 34.338 1.008 0.08773
3535 187 4 14.554 41.996 25.204 15.999 -0.35515
3536 187 2 13.825 42.571 24.196 12.011 0.03297
3537 187 2 13.959 40.943 25.845 12.011 0.01762
3538 187 2 12.658 41.299 26.507 12.011 -0.23743
3539 187 2 12.057 40.073 27.209 12.011 -0.24423
3540 187 3 14.613 43.701 23.582 12.011 -0.1837
3541 187 3 14.13 44.923 23.6 12.011 -0.23415
3542 187 1 13.175 45.108 24.054 1.008 0.12909
3543 187 1 14.67 45.746 23.17 1.008 0.12909
3544 187 1 15.564 43.431 23.147 1.008 0.15086
3545 187 1 12.884 43.001 24.65 1.008 0.07222
3546 187 1 13.515 41.901 23.393 1.008 0.07222
3547 187 1 13.81 40.097 25.129 1.008 0.09202
3548 187 1 14.692 40.545 26.594 1.008 0.09202
3549 187 1 11.92 41.597 25.724 1.008 0.10167
3550 187 1 12.769 42.093 27.262 1.008 0.10167
3551 187 1 10.955 40.201 27.213 1.008 0.08773
3552 187 1 12.295 39.173 26.58 1.008 0.08773
3553 187 1 12.468 39.991 28.231 1.008 0.08773
3554 188 4 23.787 39.244 43.321 15.999 -0.35515
3555 188 2 24.802 39.371 42.409 12.011 0.03297
3556 188 2 23.121 40.397 43.636 12.011 0.01762
3557 188 2 24.003 41.458 44.233 12.011 -0.23743
3558 188 2 23.184 42.714 44.567 12.011 -0.24423
3559 188 3 25.428 38.022 42.155 12.011 -0.1837
3560 188 3 26.703 37.833 42.412 12.011 -0.23415
3561 188 1 27.291 38.643 42.801 1.008 0.12909
3562 188 1 27.174 36.882 42.24 1.008 0.12909
3563 188 1 24.769 37.262 41.765 1.008 0.15086
3564 188 1 25.588 40.048 42.856 1.008 0.07222
3565 188 1 24.523 39.8 41.445 1.008 0.07222
3566 188 1 22.596 40.793 42.732 1.008 0.09202
3567 188 1 22.292 40.126 44.34 1.008 0.09202
3568 188 1 24.756 41.774 43.473 1.008 0.10167
3569 188 1 24.497 41.127 45.159 1.008 0.10167
3570 188 1 23.869 43.583 44.493 1.008 0.08773
3571 188 1 22.399 42.826 43.771 1.008 0.08773
3572 188 1 22.748 42.615 45.577 1.008 0.08773
3573 189 4 39.408 20.599 20.877 15.999 -0.35515
3574 189 2 39.311 20.908 19.545 12.011 0.03297
3575 189 2 38.237 20.639 21.585 12.011 0.01762
3576 189 2 37.577 21.989 21.581 12.011 -0.23743
3577 189 2 36.278 21.955 22.4 12.011 -0.24423
3578 189 3 40.671 20.809 18.901 12.011 -0.1837
3579 189 3 41.204 21.866 18.328 12.011 -0.23415
3580 189 1 40.664 22.794 18.324 1.008 0.12909
3581 189 1 42.171 21.823 17.863 1.008 0.12909
3582 189 1 41.147 19.841 18.95 1.008 0.15086
3583 189 1 38.956 21.977 19.461 1.008 0.07222
3584 189 1 38.618 20.296 18.965 1.008 0.07222
3585 189 1 37.532 19.861 21.198 1.008 0.09202
3586 189 1 38.465 20.309 22.632 1.008 0.09202
3587 189 1 37.275 22.243 20.537 1.008 0.10167
3588 189 1 38.218 22.776 22.006 1.008 0.10167
3589 189 1 35.597 22.719 21.971 1.008 0.08773
3590 189 1 35.806 20.948 22.244 1.008 0.08773
3591 189 1 36.505 22.153 23.463 1.008 0.08773
3592 190 4 25.199 19.222 6.447 15.999 -0.35515
3593 190 2 24.942 17.891 6.241 12.011 0.03297
3594 190 2 26.437 19.657 6.055 12.011 0.01762
3595 190 2 27.569 18.964 6.761 12.011 -0.23743
3596 190 2 28.92 19.511 6.276 12.011 -0.24423
3597 190 3 23.545 17.568 6.707 12.011 -0.1837
3598 190 3 23.36 16.678 7.656 12.011 -0.23415
3599 190 1 24.208 16.187 8.094 1.008 0.12909
3600 190 1 22.375 16.429 8.007 1.008 0.12909
3601 190 1 22.748 18.106 6.216 1.008 0.15086
3602 190 1 25.671 17.296 6.866 1.008 0.07222
3603 190 1 25.045 17.541 5.213 1.008 0.07222
3604 190 1 26.546 19.549 4.948 1.008 0.09202
3605 190 1 26.476 20.763 6.23 1.008 0.09202
3606 190 1 27.559 17.882 6.488 1.008 0.10167
3607 190 1 27.53 19.093 7.853 1.008 0.10167
3608 190 1 29.664 18.694 6.382 1.008 0.08773
3609 190 1 28.818 19.742 5.182 1.008 0.08773
3610 190 1 29.195 20.4 6.87 1.008 0.08773
3611 191 4 24.112 45.726 47.45 15.999 -0.35515
3612 191 2 23.9 46.87 46.726 12.011 0.03297
3613 191 2 25.156 45.764 48.334 12.011 0.01762
3614 191 2 26.486 46.023 47.684 12.011 -0.23743
3615 191 2 27.605 46.043 48.736 12.011 -0.24423
3616 191 3 22.716 46.68 45.811 12.011 -0.1837
3617 191 3 22.869 46.791 44.51 12.011 -0.23415
3618 191 1 23.838 47.017 44.108 1.008 0.12909
3619 191 1 22.042 46.661 43.836 1.008 0.12909
3620 191 1 21.778 46.454 46.295 1.008 0.15086
3621 191 1 24.815 47.052 46.089 1.008 0.07222
3622 191 1 23.734 47.777 47.309 1.008 0.07222
3623 191 1 24.956 46.528 49.126 1.008 0.09202
3624 191 1 25.166 44.789 48.887 1.008 0.09202
3625 191 1 26.475 47.041 47.227 1.008 0.10167
3626 191 1 26.747 45.26 46.935 1.008 0.10167
3627 191 1 28.403 46.713 48.357 1.008 0.08773
3628 191 1 27.183 46.505 49.669 1.008 0.08773
3629 191 1 27.973 45.015 48.906 1.008 0.08773
3630 192 4 24.444 37.866 33.348 15.999 -0.35515
3631 192 2 23.482 37.913 34.323 12.011 0.03297
3632 192 2 25.092 36.668 33.208 12.011 0.01762
3633 192 2 25.821 36.23 34.447 12.011 -0.23743
3634 192 2 26.529 34.888 34.209 12.011 -0.24423
3635 192 3 22.852 39.283 34.347 12.011 -0.1837
3636 192 3 22.915 40.015 35.437 12.011 -0.23415
3637 192 1 23.417 39.63 36.304 1.008 0.12909
3638 192 1 22.475 40.994 35.481 1.008 0.12909
3639 192 1 22.368 39.596 33.434 1.008 0.15086
3640 192 1 23.987 37.738 35.318 1.008 0.07222
3641 192 1 22.683 37.176 34.237 1.008 0.07222
3642 192 1 24.369 35.879 32.884 1.008 0.09202
3643 192 1 25.799 36.766 32.343 1.008 0.09202
3644 192 1 25.079 36.048 35.26 1.008 0.10167
3645 192 1 26.584 36.956 34.769 1.008 0.10167
3646 192 1 26.587 34.368 35.188 1.008 0.08773
3647 192 1 25.873 34.276 33.534 1.008 0.08773
3648 192 1 27.529 35.066 33.776 1.008 0.08773
3649 193 4 4.264 37.835 9.812 15.999 -0.35515
3650 193 2 4.004 36.495 9.929 12.011 0.03297
3651 193 2 3.169 38.657 9.81 12.011 0.01762
3652 193 2 2.213 38.383 8.684 12.011 -0.23743
3653 193 2 1.019 39.348 8.744 12.011 -0.24423
3654 193 3 5.3 35.725 9.929 12.011 -0.1837
3655 193 3 5.529 34.826 8.997 12.011 -0.23415
3656 193 1 4.789 34.647 8.241 1.008 0.12909
3657 193 1 6.444 34.263 8.974 1.008 0.12909
3658 193 1 5.991 35.965 10.722 1.008 0.15086
3659 193 1 3.403 36.178 9.026 1.008 0.07222
3660 193 1 3.434 36.197 10.81 1.008 0.07222
3661 193 1 2.641 38.589 10.793 1.008 0.09202
3662 193 1 3.541 39.714 9.769 1.008 0.09202
3663 193 1 1.787 37.359 8.809 1.008 0.10167
3664 193 1 2.681 38.494 7.694 1.008 0.10167
3665 193 1 0.15 38.826 8.293 1.008 0.08773
3666 193 1 0.786 39.529 9.828 1.008 0.08773
3667 193 1 1.267 40.279 8.205 1.008 0.08773
3668 194 4 34.613 4.553 45.285 15.999 -0.35515
3669 194 2 34.3 5.808 44.831 12.011 0.03297
3670 194 2 35.366 4.503 46.427 12.011 0.01762
3671 194 2 36.703 5.176 46.296 12.011 -0.23743
3672 194 2 37.491 5.071 47.61 12.011 -0.24423
3673 194 3 33.461 5.701 43.582 12.011 -0.1837
3674 194 3 33.891 6.227 42.456 12.011 -0.23415
3675 194 1 34.839 6.731 42.436 1.008 0.12909
3676 194 1 33.314 6.165 41.552 1.008 0.12909
3677 194 1 32.523 5.178 43.687 1.008 0.15086
3678 194 1 35.265 6.332 44.566 1.008 0.07222
3679 194 1 33.772 6.45 45.537 1.008 0.07222
3680 194 1 34.793 4.942 47.28 1.008 0.09202
3681 194 1 35.489 3.424 46.703 1.008 0.09202
3682 194 1 36.545 6.267 46.118 1.008 0.10167
3683 194 1 37.324 4.736 45.5 1.008 0.10167
3684 194 1 38.16 5.954 47.666 1.008 0.08773
3685 194 1 36.752 5.147 48.453 1.008 0.08773
3686 194 1 38.055 4.122 47.63 1.008 0.08773
3687 195 4 23.734 19.926 2.209 15.999 -0.35515
3688 195 2 22.873 20.486 1.301 12.011 0.03297
3689 195 2 23.487 18.621 2.538 12.011 0.01762
3690 195 2 22.133 18.4 3.151 12.011 -0.23743
3691 195 2 21.934 16.917 3.5 12.011 -0.24423
3692 195 3 23.278 21.913 1.031 12.011 -0.1837
3693 195 3 22.44 22.893 1.288 12.011 -0.23415
3694 195 1 21.47 22.668 1.689 1.008 0.12909
3695 195 1 22.703 23.918 1.105 1.008 0.12909
3696 195 1 24.27 22.054 0.629 1.008 0.15086
3697 195 1 21.84 20.491 1.759 1.008 0.07222
3698 195 1 22.793 19.971 0.343 1.008 0.07222
3699 195 1 23.615 17.97 1.638 1.008 0.09202
3700 195 1 24.299 18.289 3.236 1.008 0.09202
3701 195 1 21.348 18.647 2.397 1.008 0.10167
3702 195 1 21.985 18.981 4.074 1.008 0.10167
3703 195 1 20.847 16.707 3.439 1.008 0.08773
3704 195 1 22.446 16.312 2.704 1.008 0.08773
3705 195 1 22.339 16.715 4.507 1.008 0.08773
3706 196 4 37.405 14.203 37.838 15.999 -0.35515
3707 196 2 37.176 12.919 37.417 12.011 0.03297
3708 196 2 37.762 15.095 36.863 12.011 0.01762
3709 196 2 39.03 14.726 36.144 12.011 -0.23743
3710 196 2 39.368 15.775 35.075 12.011 -0.24423
3711 196 3 36.781 12.063 38.594 12.011 -0.1837
3712 196 3 37.51 11.019 38.919 12.011 -0.23415
3713 196 1 38.384 10.784 38.342 1.008 0.12909
3714 196 1 37.252 10.393 39.753 1.008 0.12909
3715 196 1 35.89 12.369 39.122 1.008 0.15086
3716 196 1 38.141 12.515 36.993 1.008 0.07222
3717 196 1 36.415 12.802 36.645 1.008 0.07222
3718 196 1 36.924 15.217 36.133 1.008 0.09202
3719 196 1 37.857 16.103 37.345 1.008 0.09202
3720 196 1 38.87 13.767 35.595 1.008 0.10167
3721 196 1 39.894 14.65 36.822 1.008 0.10167
3722 196 1 39.931 15.258 34.271 1.008 0.08773
3723 196 1 38.399 16.136 34.637 1.008 0.08773
3724 196 1 39.954 16.593 35.53 1.008 0.08773
3725 197 4 31.468 29.227 2.579 15.999 -0.35515
3726 197 2 31.645 30.145 1.577 12.011 0.03297
3727 197 2 32.126 28.037 2.421 12.011 0.01762
3728 197 2 31.726 27.289 1.181 12.011 -0.23743
3729 197 2 32.497 25.965 1.078 12.011 -0.24423
3730 197 3 30.874 31.401 1.898 12.011 -0.1837
3731 197 3 29.934 31.82 1.08 12.011 -0.23415
3732 197 1 29.721 31.262 0.188 1.008 0.12909
3733 197 1 29.37 32.711 1.285 1.008 0.12909
3734 197 1 31.149 31.902 2.814 1.008 0.15086
3735 197 1 31.226 29.705 0.625 1.008 0.07222
3736 197 1 32.678 30.427 1.369 1.008 0.07222
3737 197 1 33.23 28.209 2.431 1.008 0.09202
3738 197 1 31.933 27.421 3.338 1.008 0.09202
3739 197 1 32.019 27.887 0.285 1.008 0.10167
3740 197 1 30.651 27.05 1.157 1.008 0.10167
3741 197 1 32.592 25.721 0 1.008 0.08773
3742 197 1 33.53 26.144 1.481 1.008 0.08773
3743 197 1 31.959 25.177 1.635 1.008 0.08773
3744 198 4 49.246 30.21 27.164 15.999 -0.35515
3745 198 2 48.171 29.475 26.737 12.011 0.03297
3746 198 2 49.691 31.173 26.299 12.011 0.01762
3747 198 2 50.14 30.628 24.972 12.011 -0.23743
3748 198 2 50.633 31.764 24.063 12.011 -0.24423
3749 198 3 47.791 28.471 27.796 12.011 -0.1837
3750 198 3 47.815 27.186 27.52 12.011 -0.23415
3751 198 1 48.107 26.86 26.54 1.008 0.12909
3752 198 1 47.549 26.45 28.256 1.008 0.12909
3753 198 1 47.511 28.88 28.755 1.008 0.15086
3754 198 1 48.483 28.911 25.809 1.008 0.07222
3755 198 1 47.279 30.045 26.477 1.008 0.07222
3756 198 1 48.9 31.949 26.152 1.008 0.09202
3757 198 1 50.526 31.723 26.807 1.008 0.09202
3758 198 1 49.264 30.174 24.451 1.008 0.10167
3759 198 1 50.96 29.9 25.068 1.008 0.10167
3760 198 1 50.453 31.448 23.014 1.008 0.08773
3761 198 1 49.989 32.662 24.266 1.008 0.08773
3762 198 1 51.702 31.959 24.258 1.008 0.08773
3763 199 4 22.994 17.317 21.655 15.999 -0.35515
3764 199 2 23.406 16.018 21.513 12.011 0.03297
3765 199 2 21.725 17.591 21.221 12.011 0.01762
3766 199 2 21.515 17.31 19.759 12.011 -0.23743
3767 199 2 20.075 17.648 19.347 12.011 -0.24423
3768 199 3 24.81 15.871 22.044 12.011 -0.1837
3769 199 3 25.774 15.466 21.247 12.011 -0.23415
3770 199 1 25.553 15.243 20.221 1.008 0.12909
3771 199 1 26.782 15.353 21.6 1.008 0.12909
3772 199 1 24.948 16.117 23.086 1.008 0.15086
3773 199 1 23.417 15.776 20.41 1.008 0.07222
3774 199 1 22.782 15.266 21.998 1.008 0.07222
3775 199 1 20.982 17.024 21.835 1.008 0.09202
3776 199 1 21.512 18.666 21.454 1.008 0.09202
3777 199 1 21.638 16.215 19.578 1.008 0.10167
3778 199 1 22.191 17.892 19.114 1.008 0.10167
3779 199 1 19.809 16.984 18.499 1.008 0.08773
3780 199 1 19.406 17.385 20.211 1.008 0.08773
3781 199 1 20.008 18.716 19.074 1.008 0.08773
3782 200 4 21.361 18.101 23.716 15.999 -0.35515
3783 200 2 20.49 19 24.274 12.011 0.03297
3784 200 2 21.677 17.018 24.492 12.011 0.01762
3785 200 2 22.33 17.382 25.796 12.011 -0.23743
3786 200 2 22.662 16.119 26.604 12.011 -0.24423
3787 200 3 20.229 20.123 23.301 12.011 -0.1837
3788 200 3 20.528 21.359 23.632 12.011 -0.23415
3789 200 1 20.956 21.561 24.595 1.008 0.12909
3790 200 1 20.352 22.178 22.958 1.008 0.12909
3791 200 1 19.798 19.836 22.354 1.008 0.15086
3792 200 1 20.98 19.435 25.194 1.008 0.07222
3793 200 1 19.527 18.596 24.588 1.008 0.07222
3794 200 1 20.763 16.401 24.675 1.008 0.09202
3795 200 1 22.344 16.352 23.886 1.008 0.09202
3796 200 1 21.605 17.962 26.416 1.008 0.10167
3797 200 1 23.266 17.945 25.659 1.008 0.10167
3798 200 1 22.633 16.396 27.678 1.008 0.08773
3799 200 1 21.841 15.375 26.419 1.008 0.08773
3800 200 1 23.653 15.735 26.303 1.008 0.08773
3801 201 4 21.549 46.972 10.371 15.999 -0.35515
3802 201 2 22.056 48.192 10.008 12.011 0.03297
3803 201 2 22.213 45.88 9.879 12.011 0.01762
3804 201 2 22.242 45.82 8.378 12.011 -0.23743
3805 201 2 22.994 44.568 7.904 12.011 -0.24423
3806 201 3 21.232 49.29 10.634 12.011 -0.1837
3807 201 3 20.619 50.166 9.87 12.011 -0.23415
3808 201 1 20.71 50.093 8.803 1.008 0.12909
3809 201 1 20.025 50.957 10.289 1.008 0.12909
3810 201 1 21.19 49.292 11.713 1.008 0.15086
3811 201 1 21.973 48.283 8.885 1.008 0.07222
3812 201 1 23.101 48.368 10.265 1.008 0.07222
3813 201 1 23.253 45.851 10.288 1.008 0.09202
3814 201 1 21.723 44.967 10.305 1.008 0.09202
3815 201 1 22.821 46.692 7.99 1.008 0.10167
3816 201 1 21.235 45.791 7.935 1.008 0.10167
3817 201 1 23.44 44.805 6.915 1.008 0.08773
3818 201 1 23.836 44.386 8.625 1.008 0.08773
3819 201 1 22.296 43.714 7.849 1.008 0.08773
3820 202 4 31.753 19.028 36.362 15.999 -0.35515
3821 202 2 31.457 18.27 35.259 12.011 0.03297
3822 202 2 30.762 19.871 36.789 12.011 0.01762
3823 202 2 30.351 20.887 35.761 12.011 -0.23743
3824 202 2 29.245 21.798 36.315 12.011 -0.24423
3825 202 3 32.633 17.389 34.92 12.011 -0.1837
3826 202 3 33.219 17.499 33.748 12.011 -0.23415
3827 202 1 32.853 18.218 33.039 1.008 0.12909
3828 202 1 34.058 16.884 33.481 1.008 0.12909
3829 202 1 32.939 16.694 35.687 1.008 0.15086
3830 202 1 31.279 18.973 34.393 1.008 0.07222
3831 202 1 30.574 17.636 35.342 1.008 0.07222
3832 202 1 29.875 19.277 37.123 1.008 0.09202
3833 202 1 31.125 20.373 37.723 1.008 0.09202
3834 202 1 29.904 20.358 34.886 1.008 0.10167
3835 202 1 31.185 21.531 35.444 1.008 0.10167
3836 202 1 28.635 22.137 35.454 1.008 0.08773
3837 202 1 28.589 21.168 36.975 1.008 0.08773
3838 202 1 29.7 22.644 36.859 1.008 0.08773
3839 203 4 46.091 42.133 18.428 15.999 -0.35515
3840 203 2 46.709 43.262 17.959 12.011 0.03297
3841 203 2 46.56 40.946 17.932 12.011 0.01762
3842 203 2 46.434 40.826 16.439 12.011 -0.23743
3843 203 2 46.971 39.469 15.961 12.011 -0.24423
3844 203 3 46.096 44.481 18.602 12.011 -0.1837
3845 203 3 45.526 45.4 17.855 12.011 -0.23415
3846 203 1 45.502 45.275 16.789 1.008 0.12909
3847 203 1 45.081 46.277 18.287 1.008 0.12909
3848 203 1 46.161 44.529 19.678 1.008 0.15086
3849 203 1 46.528 43.32 16.845 1.008 0.07222
3850 203 1 47.789 43.309 18.109 1.008 0.07222
3851 203 1 47.624 40.798 18.244 1.008 0.09202
3852 203 1 46.003 40.121 18.447 1.008 0.09202
3853 203 1 47.077 41.599 15.956 1.008 0.10167
3854 203 1 45.392 40.911 16.094 1.008 0.10167
3855 203 1 47.344 39.608 14.925 1.008 0.08773
3856 203 1 47.851 39.207 16.609 1.008 0.08773
3857 203 1 46.169 38.712 16.014 1.008 0.08773
3858 204 4 7.463 24.677 21.34 15.999 -0.35515
3859 204 2 6.737 24.648 20.178 12.011 0.03297
3860 204 2 8.749 25.133 21.229 12.011 0.01762
3861 204 2 9.599 24.312 20.3 12.011 -0.23743
3862 204 2 11.025 24.879 20.235 12.011 -0.24423
3863 204 3 5.346 24.139 20.462 12.011 -0.1837
3864 204 3 4.912 23.049 19.868 12.011 -0.23415
3865 204 1 5.555 22.529 19.183 1.008 0.12909
3866 204 1 3.926 22.665 20.052 1.008 0.12909
3867 204 1 4.765 24.72 21.163 1.008 0.15086
3868 204 1 7.241 23.925 19.472 1.008 0.07222
3869 204 1 6.647 25.598 19.65 1.008 0.07222
3870 204 1 8.747 26.204 20.908 1.008 0.09202
3871 204 1 9.19 25.154 22.259 1.008 0.09202
3872 204 1 9.189 24.392 19.265 1.008 0.10167
3873 204 1 9.674 23.259 20.612 1.008 0.10167
3874 204 1 11.434 24.629 19.234 1.008 0.08773
3875 204 1 10.948 25.997 20.303 1.008 0.08773
3876 204 1 11.634 24.448 21.05 1.008 0.08773
3877 205 4 49.713 47.417 19.907 15.999 -0.35515
3878 205 2 48.933 48.11 19.018 12.011 0.03297
3879 205 2 49.924 48.025 21.115 12.011 0.01762
3880 205 2 50.611 49.358 21.005 12.011 -0.23743
3881 205 2 50.82 49.971 22.398 12.011 -0.24423
3882 205 3 48.781 47.311 17.748 12.011 -0.1837
3883 205 3 49.198 47.811 16.605 12.011 -0.23415
3884 205 1 49.645 48.787 16.586 1.008 0.12909
3885 205 1 49.102 47.263 15.686 1.008 0.12909
3886 205 1 48.323 46.34 17.853 1.008 0.15086
3887 205 1 49.465 49.075 18.769 1.008 0.07222
3888 205 1 47.936 48.377 19.37 1.008 0.07222
3889 205 1 48.955 48.132 21.662 1.008 0.09202
3890 205 1 50.523 47.32 21.748 1.008 0.09202
3891 205 1 49.946 50.065 20.454 1.008 0.10167
3892 205 1 51.597 49.288 20.521 1.008 0.10167
3893 205 1 50.819 51.074 22.276 1.008 0.08773
3894 205 1 49.931 49.695 23.026 1.008 0.08773
3895 205 1 51.769 49.603 22.827 1.008 0.08773
3896 206 4 45.773 16.316 21.061 15.999 -0.35515
3897 206 2 44.967 16.116 22.151 12.011 0.03297
3898 206 2 45.59 15.451 20.017 12.011 0.01762
3899 206 2 45.832 14.012 20.377 12.011 -0.23743
3900 206 2 45.616 13.107 19.155 12.011 -0.24423
3901 206 3 45.275 17.148 23.207 12.011 -0.1837
3902 206 3 45.689 16.767 24.395 12.011 -0.23415
3903 206 1 45.805 15.721 24.604 1.008 0.12909
3904 206 1 45.916 17.481 25.164 1.008 0.12909
3905 206 1 45.134 18.177 22.915 1.008 0.15086
3906 206 1 45.201 15.095 22.574 1.008 0.07222
3907 206 1 43.893 16.141 21.958 1.008 0.07222
3908 206 1 44.562 15.577 19.594 1.008 0.09202
3909 206 1 46.271 15.774 19.187 1.008 0.09202
3910 206 1 45.075 13.694 21.134 1.008 0.10167
3911 206 1 46.854 13.834 20.747 1.008 0.10167
3912 206 1 45.289 12.116 19.532 1.008 0.08773
3913 206 1 44.771 13.543 18.558 1.008 0.08773
3914 206 1 46.552 13.039 18.573 1.008 0.08773
3915 207 4 36.093 1.811 28.042 15.999 -0.35515
3916 207 2 35.907 1.986 29.388 12.011 0.03297
3917 207 2 37.206 2.405 27.511 12.011 0.01762
3918 207 2 37.23 3.899 27.681 12.011 -0.23743
3919 207 2 38.501 4.492 27.055 12.011 -0.24423
3920 207 3 34.655 1.266 29.825 12.011 -0.1837
3921 207 3 33.668 1.941 30.37 12.011 -0.23415
3922 207 1 33.761 3.002 30.501 1.008 0.12909
3923 207 1 32.765 1.453 30.69 1.008 0.12909
3924 207 1 34.641 0.2 29.657 1.008 0.15086
3925 207 1 35.766 3.09 29.579 1.008 0.07222
3926 207 1 36.726 1.655 30.027 1.008 0.07222
3927 207 1 38.127 1.951 27.953 1.008 0.09202
3928 207 1 37.253 2.127 26.427 1.008 0.09202
3929 207 1 37.281 4.14 28.77 1.008 0.10167
3930 207 1 36.366 4.392 27.211 1.008 0.10167
3931 207 1 38.745 5.417 27.618 1.008 0.08773
3932 207 1 39.334 3.758 27.224 1.008 0.08773
3933 207 1 38.328 4.693 25.983 1.008 0.08773
3934 208 4 48.099 39.272 3.608 15.999 -0.35515
3935 208 2 49.43 39.294 3.279 12.011 0.03297
3936 208 2 47.593 40.434 4.125 12.011 0.01762
3937 208 2 48.266 40.87 5.396 12.011 -0.23743
3938 208 2 47.639 42.172 5.918 12.011 -0.24423
3939 208 3 49.835 37.956 2.715 12.011 -0.1837
3940 208 3 50.773 37.251 3.308 12.011 -0.23415
3941 208 1 51.244 37.635 4.192 1.008 0.12909
3942 208 1 51.081 36.295 2.927 1.008 0.12909
3943 208 1 49.312 37.642 1.824 1.008 0.15086
3944 208 1 50.019 39.473 4.227 1.008 0.07222
3945 208 1 49.73 40.065 2.568 1.008 0.07222
3946 208 1 47.648 41.247 3.359 1.008 0.09202
3947 208 1 46.495 40.281 4.287 1.008 0.09202
3948 208 1 49.334 41.108 5.18 1.008 0.10167
3949 208 1 48.186 40.119 6.197 1.008 0.10167
3950 208 1 48.425 42.715 6.481 1.008 0.08773
3951 208 1 47.365 42.796 5.024 1.008 0.08773
3952 208 1 46.765 41.937 6.55 1.008 0.08773
3953 209 4 3.208 40.176 30.047 15.999 -0.35515
3954 209 2 2.808 38.914 30.4 12.011 0.03297
3955 209 2 4.214 40.245 29.122 12.011 0.01762
3956 209 2 5.488 39.581 29.566 12.011 -0.23743
3957 209 2 6.568 39.708 28.481 12.011 -0.24423
3958 209 3 1.692 39 31.411 12.011 -0.1837
3959 209 3 1.843 38.464 32.602 12.011 -0.23415
3960 209 1 2.763 37.967 32.846 1.008 0.12909
3961 209 1 1.064 38.511 33.34 1.008 0.12909
3962 209 1 0.801 39.517 31.087 1.008 0.15086
3963 209 1 3.686 38.394 30.885 1.008 0.07222
3964 209 1 2.473 38.276 29.581 1.008 0.07222
3965 209 1 3.869 39.812 28.151 1.008 0.09202
3966 209 1 4.389 41.329 28.894 1.008 0.09202
3967 209 1 5.303 38.487 29.689 1.008 0.10167
3968 209 1 5.893 40.017 30.492 1.008 0.10167
3969 209 1 7.24 38.831 28.58 1.008 0.08773
3970 209 1 6.055 39.637 27.484 1.008 0.08773
3971 209 1 7.111 40.662 28.608 1.008 0.08773
3972 210 4 10.134 9.933 18.696 15.999 -0.35515
3973 210 2 10.011 9.833 17.334 12.011 0.03297
3974 210 2 11.319 10.444 19.152 12.011 0.01762
3975 210 2 12.519 9.634 18.746 12.011 -0.23743
3976 210 2 13.806 10.263 19.301 12.011 -0.24423
3977 210 3 8.656 9.27 16.987 12.011 -0.1837
3978 210 3 8.566 8.143 16.316 12.011 -0.23415
3979 210 1 9.462 7.63 16.02 1.008 0.12909
3980 210 1 7.614 7.72 16.056 1.008 0.12909
3981 210 1 7.806 9.845 17.322 1.008 0.15086
3982 210 1 10.799 9.112 16.967 1.008 0.07222
3983 210 1 10.144 10.761 16.776 1.008 0.07222
3984 210 1 11.434 11.502 18.811 1.008 0.09202
3985 210 1 11.247 10.518 20.268 1.008 0.09202
3986 210 1 12.617 9.661 17.635 1.008 0.10167
3987 210 1 12.472 8.596 19.11 1.008 0.10167
3988 210 1 14.628 9.999 18.605 1.008 0.08773
3989 210 1 13.676 11.378 19.272 1.008 0.08773
3990 210 1 13.992 9.887 20.323 1.008 0.08773
3991 211 4 35.256 38.525 10.434 15.999 -0.35515
3992 211 2 35.505 39.584 11.268 12.011 0.03297
3993 211 2 35.476 37.283 10.966 12.011 0.01762
3994 211 2 36.895 37.06 11.408 12.011 -0.23743
3995 211 2 37.065 35.646 11.983 12.011 -0.24423
3996 211 3 35.206 40.876 10.55 12.011 -0.1837
3997 211 3 36.158 41.766 10.378 12.011 -0.23415
3998 211 1 37.144 41.565 10.751 1.008 0.12909
3999 211 1 35.972 42.694 9.87 1.008 0.12909
4000 211 1 34.191 41 10.205 1.008 0.15086
4001 211 1 36.604 39.57 11.529 1.008 0.07222
4002 211 1 34.955 39.587 12.21 1.008 0.07222
4003 211 1 34.773 37.103 11.817 1.008 0.09202
4004 211 1 35.175 36.528 10.195 1.008 0.09202
4005 211 1 37.131 37.763 12.242 1.008 0.10167
4006 211 1 37.618 37.173 10.585 1.008 0.10167
4007 211 1 37.884 35.69 12.73 1.008 0.08773
4008 211 1 36.117 35.388 12.527 1.008 0.08773
4009 211 1 37.288 34.937 11.166 1.008 0.08773
4010 212 4 20.694 28.709 41.072 15.999 -0.35515
4011 212 2 20.285 29.062 42.331 12.011 0.03297
4012 212 2 19.884 29.117 40.046 12.011 0.01762
4013 212 2 18.485 28.573 40.131 12.011 -0.23743
4014 212 2 17.643 29.066 38.945 12.011 -0.24423
4015 212 3 21.279 28.557 43.347 12.011 -0.1837
4016 212 3 20.893 27.716 44.28 12.011 -0.23415
4017 212 1 19.869 27.395 44.312 1.008 0.12909
4018 212 1 21.581 27.341 45.016 1.008 0.12909
4019 212 1 22.288 28.928 43.244 1.008 0.15086
4020 212 1 19.292 28.561 42.528 1.008 0.07222
4021 212 1 20.142 30.13 42.502 1.008 0.07222
4022 212 1 19.863 30.234 39.999 1.008 0.09202
4023 212 1 20.374 28.809 39.086 1.008 0.09202
4024 212 1 17.993 28.977 41.047 1.008 0.10167
4025 212 1 18.457 27.473 40.124 1.008 0.10167
4026 212 1 16.587 29.108 39.285 1.008 0.08773
4027 212 1 17.969 30.115 38.712 1.008 0.08773
4028 212 1 17.775 28.384 38.087 1.008 0.08773
4029 213 4 47.762 38.105 10.898 15.999 -0.35515
4030 213 2 48.399 36.907 11.095 12.011 0.03297
4031 213 2 46.702 38.359 11.726 12.011 0.01762
4032 213 2 45.596 37.347 11.616 12.011 -0.23743
4033 213 2 44.443 37.705 12.565 12.011 -0.24423
4034 213 3 49.545 36.778 10.124 12.011 -0.1837
4035 213 3 49.568 35.783 9.265 12.011 -0.23415
4036 213 1 48.766 35.068 9.262 1.008 0.12909
4037 213 1 50.372 35.667 8.562 1.008 0.12909
4038 213 1 50.309 37.537 10.191 1.008 0.15086
4039 213 1 47.659 36.081 10.882 1.008 0.07222
4040 213 1 48.787 36.736 12.1 1.008 0.07222
4041 213 1 47.055 38.434 12.784 1.008 0.09202
4042 213 1 46.326 39.388 11.487 1.008 0.09202
4043 213 1 45.977 36.354 11.954 1.008 0.10167
4044 213 1 45.181 37.282 10.598 1.008 0.10167
4045 213 1 43.943 36.756 12.849 1.008 0.08773
4046 213 1 44.895 38.145 13.495 1.008 0.08773
4047 213 1 43.751 38.403 12.063 1.008 0.08773
4048 214 4 19.784 47.47 43.563 15.999 -0.35515
4049 214 2 20.202 47.893 42.328 12.011 0.03297
4050 214 2 18.877 46.446 43.567 12.011 0.01762
4051 214 2 17.596 46.774 42.852 12.011 -0.23743
4052 214 2 16.628 45.582 42.906 12.011 -0.24423
4053 214 3 21.204 49.01 42.487 12.011 -0.1837
4054 214 3 20.955 50.192 41.969 12.011 -0.23415
4055 214 1 20.038 50.353 41.434 1.008 0.12909
4056 214 1 21.651 51.005 42.067 1.008 0.12909
4057 214 1 22.099 48.766 43.039 1.008 0.15086
4058 214 1 19.304 48.299 41.778 1.008 0.07222
4059 214 1 20.648 47.129 41.691 1.008 0.07222
4060 214 1 19.339 45.526 43.13 1.008 0.09202
4061 214 1 18.678 46.174 44.636 1.008 0.09202
4062 214 1 17.816 46.943 41.771 1.008 0.10167
4063 214 1 17.078 47.643 43.287 1.008 0.10167
4064 214 1 15.99 45.634 42.001 1.008 0.08773
4065 214 1 17.244 44.645 42.839 1.008 0.08773
4066 214 1 16.033 45.629 43.835 1.008 0.08773
4067 215 4 42.658 9.021 42.573 15.999 -0.35515
4068 215 2 42.881 8.333 43.737 12.011 0.03297
4069 215 2 42.388 10.355 42.711 12.011 0.01762
4070 215 2 41.16 10.639 43.531 12.011 -0.23743
4071 215 2 40.918 12.152 43.632 12.011 -0.24423
4072 215 3 43.177 6.888 43.424 12.011 -0.1837
4073 215 3 42.401 5.941 43.903 12.011 -0.23415
4074 215 1 41.561 6.205 44.517 1.008 0.12909
4075 215 1 42.589 4.904 43.696 1.008 0.12909
4076 215 1 44.039 6.707 42.8 1.008 0.15086
4077 215 1 41.935 8.376 44.352 1.008 0.07222
4078 215 1 43.687 8.713 44.366 1.008 0.07222
4079 215 1 43.274 10.88 43.146 1.008 0.09202
4080 215 1 42.288 10.788 41.681 1.008 0.09202
4081 215 1 41.33 10.283 44.575 1.008 0.10167
4082 215 1 40.252 10.185 43.105 1.008 0.10167
4083 215 1 40.395 12.339 44.593 1.008 0.08773
4084 215 1 41.923 12.652 43.686 1.008 0.08773
4085 215 1 40.325 12.493 42.765 1.008 0.08773
4086 216 4 35.644 49.322 26.849 15.999 -0.35515
4087 216 2 35.31 48.046 27.22 12.011 0.03297
4088 216 2 36.981 49.567 26.691 12.011 0.01762
4089 216 2 37.786 49.339 27.94 12.011 -0.23743
4090 216 2 39.27 49.642 27.687 12.011 -0.24423
4091 216 3 33.811 47.928 27.34 12.011 -0.1837
4092 216 3 33.27 47.591 28.489 12.011 -0.23415
4093 216 1 33.902 47.403 29.337 1.008 0.12909
4094 216 1 32.206 47.5 28.602 1.008 0.12909
4095 216 1 33.249 48.135 26.442 1.008 0.15086
4096 216 1 35.764 47.85 28.236 1.008 0.07222
4097 216 1 35.659 47.252 26.557 1.008 0.07222
4098 216 1 37.385 48.949 25.852 1.008 0.09202
4099 216 1 37.091 50.624 26.334 1.008 0.09202
4100 216 1 37.734 48.258 28.214 1.008 0.10167
4101 216 1 37.455 49.972 28.778 1.008 0.10167
4102 216 1 39.859 49.005 28.378 1.008 0.08773
4103 216 1 39.506 49.32 26.637 1.008 0.08773
4104 216 1 39.463 50.718 27.85 1.008 0.08773
4105 217 4 20.067 24.09 5.173 15.999 -0.35515
4106 217 2 20.564 23.857 3.917 12.011 0.03297
4107 217 2 19.363 25.254 5.328 12.011 0.01762
4108 217 2 20.167 26.488 5.029 12.011 -0.23743
4109 217 2 19.314 27.749 5.234 12.011 -0.24423
4110 217 3 21.299 22.54 3.899 12.011 -0.1837
4111 217 3 22.575 22.505 3.585 12.011 -0.23415
4112 217 1 23.085 23.418 3.342 1.008 0.12909
4113 217 1 23.122 21.581 3.565 1.008 0.12909
4114 217 1 20.714 21.67 4.157 1.008 0.15086
4115 217 1 21.302 24.678 3.677 1.008 0.07222
4116 217 1 19.829 23.843 3.111 1.008 0.07222
4117 217 1 18.442 25.229 4.695 1.008 0.09202
4118 217 1 18.975 25.276 6.38 1.008 0.09202
4119 217 1 20.454 26.483 3.951 1.008 0.10167
4120 217 1 21.056 26.581 5.671 1.008 0.10167
4121 217 1 19.706 28.528 4.549 1.008 0.08773
4122 217 1 18.266 27.504 4.911 1.008 0.08773
4123 217 1 19.364 28.064 6.292 1.008 0.08773
4124 218 4 45.823 39.781 22.331 15.999 -0.35515
4125 218 2 46.976 40.499 22.149 12.011 0.03297
4126 218 2 44.785 40.097 21.496 12.011 0.01762
4127 218 2 44.334 41.526 21.611 12.011 -0.23743
4128 218 2 43.166 41.801 20.653 12.011 -0.24423
4129 218 3 48.024 40.031 23.127 12.011 -0.1837
4130 218 3 48.534 40.875 23.996 12.011 -0.23415
4131 218 1 48.198 41.895 24.003 1.008 0.12909
4132 218 1 49.282 40.568 24.703 1.008 0.12909
4133 218 1 48.305 38.991 23.055 1.008 0.15086
4134 218 1 46.747 41.584 22.367 1.008 0.07222
4135 218 1 47.407 40.46 21.148 1.008 0.07222
4136 218 1 45.063 39.862 20.439 1.008 0.09202
4137 218 1 43.943 39.394 21.723 1.008 0.09202
4138 218 1 45.164 42.197 21.285 1.008 0.10167
4139 218 1 43.999 41.784 22.628 1.008 0.10167
4140 218 1 43.21 42.874 20.377 1.008 0.08773
4141 218 1 43.345 41.2 19.721 1.008 0.08773
4142 218 1 42.212 41.54 21.146 1.008 0.08773
4143 219 4 23.742 22.407 39.813 15.999 -0.35515
4144 219 2 24.428 23.044 40.815 12.011 0.03297
4145 219 2 22.497 21.946 40.144 12.011 0.01762
4146 219 2 22.505 20.941 41.262 12.011 -0.23743
4147 219 2 21.077 20.465 41.568 12.011 -0.24423
4148 219 3 25.768 23.504 40.298 12.011 -0.1837
4149 219 3 26.873 23.062 40.857 12.011 -0.23415
4150 219 1 26.812 22.375 41.679 1.008 0.12909
4151 219 1 27.841 23.374 40.508 1.008 0.12909
4152 219 1 25.742 24.193 39.468 1.008 0.15086
4153 219 1 24.605 22.296 41.643 1.008 0.07222
4154 219 1 23.927 23.902 41.262 1.008 0.07222
4155 219 1 21.828 22.804 40.399 1.008 0.09202
4156 219 1 22.042 21.507 39.218 1.008 0.09202
4157 219 1 22.87 21.436 42.193 1.008 0.10167
4158 219 1 23.109 20.051 41.028 1.008 0.10167
4159 219 1 21.046 20.183 42.641 1.008 0.08773
4160 219 1 20.39 21.343 41.424 1.008 0.08773
4161 219 1 20.819 19.617 40.91 1.008 0.08773
4162 220 4 25.023 21.206 9.127 15.999 -0.35515
4163 220 2 25.559 21.478 10.359 12.011 0.03297
4164 220 2 23.657 21.132 9.075 12.011 0.01762
4165 220 2 23.079 20.061 9.958 12.011 -0.23743
4166 220 2 21.548 20.034 9.838 12.011 -0.24423
4167 220 3 27.062 21.542 10.254 12.011 -0.1837
4168 220 3 27.804 20.713 10.956 12.011 -0.23415
4169 220 1 27.331 19.996 11.6 1.008 0.12909
4170 220 1 28.876 20.737 10.9 1.008 0.12909
4171 220 1 27.457 22.29 9.584 1.008 0.15086
4172 220 1 25.287 20.628 11.051 1.008 0.07222
4173 220 1 25.215 22.398 10.834 1.008 0.07222
4174 220 1 23.212 22.125 9.328 1.008 0.09202
4175 220 1 23.369 20.964 8.005 1.008 0.09202
4176 220 1 23.3 20.31 11.023 1.008 0.10167
4177 220 1 23.45 19.057 9.705 1.008 0.10167
4178 220 1 21.148 19.662 10.804 1.008 0.08773
4179 220 1 21.2 21.095 9.71 1.008 0.08773
4180 220 1 21.253 19.389 8.992 1.008 0.08773
4181 221 4 9.268 14.781 29.887 15.999 -0.35515
4182 221 2 10.475 15.252 30.332 12.011 0.03297
4183 221 2 9.223 14.406 28.571 12.011 0.01762
4184 221 2 9.542 15.523 27.616 12.011 -0.23743
4185 221 2 9.463 15.029 26.164 12.011 -0.24423
4186 221 3 10.372 15.609 31.794 12.011 -0.1837
4187 221 3 10.604 16.843 32.186 12.011 -0.23415
4188 221 1 10.867 17.588 31.459 1.008 0.12909
4189 221 1 10.537 17.124 33.22 1.008 0.12909
4190 221 1 10.102 14.803 32.459 1.008 0.15086
4191 221 1 10.716 16.192 29.754 1.008 0.07222
4192 221 1 11.323 14.577 30.21 1.008 0.07222
4193 221 1 9.91 13.541 28.398 1.008 0.09202
4194 221 1 8.201 13.992 28.372 1.008 0.09202
4195 221 1 10.599 15.846 27.775 1.008 0.10167
4196 221 1 8.853 16.375 27.716 1.008 0.10167
4197 221 1 10.166 15.645 25.567 1.008 0.08773
4198 221 1 9.836 13.969 26.147 1.008 0.08773
4199 221 1 8.425 15.115 25.799 1.008 0.08773
4200 222 4 42.397 39.378 36.369 15.999 -0.35515
4201 222 2 43.262 38.886 37.311 12.011 0.03297
4202 222 2 41.43 40.228 36.835 12.011 0.01762
4203 222 2 40.523 39.605 37.859 12.011 -0.23743
4204 222 2 39.463 40.614 38.325 12.011 -0.24423
4205 222 3 44.271 37.982 36.648 12.011 -0.1837
4206 222 3 44.358 36.721 37.009 12.011 -0.23415
4207 222 1 43.708 36.344 37.776 1.008 0.12909
4208 222 1 45.068 36.055 36.554 1.008 0.12909
4209 222 1 44.885 38.438 35.887 1.008 0.15086
4210 222 1 42.664 38.271 38.045 1.008 0.07222
4211 222 1 43.808 39.632 37.891 1.008 0.07222
4212 222 1 41.903 41.153 37.248 1.008 0.09202
4213 222 1 40.843 40.589 35.951 1.008 0.09202
4214 222 1 41.121 39.346 38.765 1.008 0.10167
4215 222 1 39.993 38.72 37.473 1.008 0.10167
4216 222 1 39.188 40.346 39.366 1.008 0.08773
4217 222 1 39.948 41.627 38.349 1.008 0.08773
4218 222 1 38.593 40.58 37.645 1.008 0.08773
4219 223 4 41.886 13.738 37.033 15.999 -0.35515
4220 223 2 41.512 13.033 38.148 12.011 0.03297
4221 223 2 42.217 12.988 35.937 12.011 0.01762
4222 223 2 43.374 12.058 36.173 12.011 -0.23743
4223 223 2 43.691 11.26 34.899 12.011 -0.24423
4224 223 3 41.166 13.991 39.261 12.011 -0.1837
4225 223 3 41.836 13.952 40.391 12.011 -0.23415
4226 223 1 42.627 13.237 40.513 1.008 0.12909
4227 223 1 41.61 14.623 41.199 1.008 0.12909
4228 223 1 40.359 14.678 39.057 1.008 0.15086
4229 223 1 42.395 12.411 38.478 1.008 0.07222
4230 223 1 40.672 12.35 38.018 1.008 0.07222
4231 223 1 41.325 12.415 35.584 1.008 0.09202
4232 223 1 42.441 13.697 35.098 1.008 0.09202
4233 223 1 43.084 11.305 36.943 1.008 0.10167
4234 223 1 44.292 12.589 36.47 1.008 0.10167
4235 223 1 44.129 10.291 35.217 1.008 0.08773
4236 223 1 42.716 11.044 34.385 1.008 0.08773
4237 223 1 44.384 11.838 34.262 1.008 0.08773
4238 224 4 32.614 27.626 29.062 15.999 -0.35515
4239 224 2 31.381 28.197 29.237 12.011 0.03297
4240 224 2 33.631 28.164 29.805 12.011 0.01762
4241 224 2 33.872 29.622 29.527 12.011 -0.23743
4242 224 2 35.029 30.15 30.389 12.011 -0.24423
4243 224 3 30.369 27.492 28.368 12.011 -0.1837
4244 224 3 29.711 28.165 27.45 12.011 -0.23415
4245 224 1 29.9 29.215 27.326 1.008 0.12909
4246 224 1 28.985 27.688 26.818 1.008 0.12909
4247 224 1 30.24 26.437 28.555 1.008 0.15086
4248 224 1 31.446 29.274 28.902 1.008 0.07222
4249 224 1 31.001 28.204 30.259 1.008 0.07222
4250 224 1 33.432 28.005 30.894 1.008 0.09202
4251 224 1 34.554 27.562 29.601 1.008 0.09202
4252 224 1 32.97 30.204 29.832 1.008 0.10167
4253 224 1 34.126 29.816 28.474 1.008 0.10167
4254 224 1 34.845 31.23 30.561 1.008 0.08773
4255 224 1 34.974 29.63 31.383 1.008 0.08773
4256 224 1 35.988 29.97 29.872 1.008 0.08773
4257 225 4 35.482 38.788 27.684 15.999 -0.35515
4258 225 2 35.807 37.983 26.624 12.011 0.03297
4259 225 2 34.351 39.544 27.533 12.011 0.01762
4260 225 2 34.414 40.496 26.372 12.011 -0.23743
4261 225 2 33.117 41.313 26.273 12.011 -0.24423
4262 225 3 37.06 37.207 26.943 12.011 -0.1837
4263 225 3 38.128 37.345 26.188 12.011 -0.23415
4264 225 1 38.098 38.012 25.347 1.008 0.12909
4265 225 1 39.033 36.805 26.393 1.008 0.12909
4266 225 1 37.008 36.56 27.806 1.008 0.15086
4267 225 1 36.018 38.647 25.735 1.008 0.07222
4268 225 1 35.04 37.272 26.315 1.008 0.07222
4269 225 1 33.457 38.879 27.441 1.008 0.09202
4270 225 1 34.184 40.098 28.493 1.008 0.09202
4271 225 1 34.481 39.909 25.424 1.008 0.10167
4272 225 1 35.25 41.208 26.452 1.008 0.10167
4273 225 1 32.973 41.576 25.205 1.008 0.08773
4274 225 1 32.271 40.64 26.577 1.008 0.08773
4275 225 1 33.193 42.209 26.914 1.008 0.08773
4276 226 4 5.966 38.72 7.763 15.999 -0.35515
4277 226 2 5.879 38.215 6.491 12.011 0.03297
4278 226 2 5.461 39.98 7.939 12.011 0.01762
4279 226 2 6.139 41.024 7.097 12.011 -0.23743
4280 226 2 5.525 42.407 7.357 12.011 -0.24423
4281 226 3 6.461 36.824 6.458 12.011 -0.1837
4282 226 3 7.486 36.56 5.678 12.011 -0.23415
4283 226 1 7.902 37.34 5.069 1.008 0.12909
4284 226 1 7.919 35.578 5.635 1.008 0.12909
4285 226 1 5.986 36.099 7.101 1.008 0.15086
4286 226 1 6.498 38.874 5.814 1.008 0.07222
4287 226 1 4.877 38.172 6.065 1.008 0.07222
4288 226 1 4.36 39.98 7.744 1.008 0.09202
4289 226 1 5.548 40.229 9.029 1.008 0.09202
4290 226 1 5.95 40.8 6.02 1.008 0.10167
4291 226 1 7.219 41.096 7.299 1.008 0.10167
4292 226 1 5.642 43 6.426 1.008 0.08773
4293 226 1 4.425 42.261 7.534 1.008 0.08773
4294 226 1 6.03 42.882 8.216 1.008 0.08773
4295 227 4 35.606 21.078 44.597 15.999 -0.35515
4296 227 2 35.031 20.878 45.825 12.011 0.03297
4297 227 2 36.968 21.213 44.592 12.011 0.01762
4298 227 2 37.46 22.377 45.407 12.011 -0.23743
4299 227 2 38.992 22.468 45.344 12.011 -0.24423
4300 227 3 33.538 20.735 45.668 12.011 -0.1837
4301 227 3 32.731 21.579 46.271 12.011 -0.23415
4302 227 1 33.143 22.367 46.873 1.008 0.12909
4303 227 1 31.664 21.499 46.176 1.008 0.12909
4304 227 1 33.206 19.917 45.046 1.008 0.15086
4305 227 1 35.235 21.792 46.456 1.008 0.07222
4306 227 1 35.396 20.017 46.386 1.008 0.07222
4307 227 1 37.447 20.265 44.942 1.008 0.09202
4308 227 1 37.294 21.309 43.523 1.008 0.09202
4309 227 1 37.206 22.203 46.479 1.008 0.10167
4310 227 1 37.055 23.339 45.059 1.008 0.10167
4311 227 1 39.334 22.935 46.291 1.008 0.08773
4312 227 1 39.392 21.419 45.316 1.008 0.08773
4313 227 1 39.294 23.057 44.46 1.008 0.08773
4314 228 4 3.193 44.946 39.851 15.999 -0.35515
4315 228 2 2.57 46.096 40.262 12.011 0.03297
4316 228 2 4.406 44.686 40.43 12.011 0.01762
4317 228 2 5.433 45.754 40.182 12.011 -0.23743
4318 228 2 6.765 45.387 40.853 12.011 -0.24423
4319 228 3 1.248 46.238 39.55 12.011 -0.1837
4320 228 3 1.021 47.288 38.792 12.011 -0.23415
4321 228 1 1.782 48.038 38.685 1.008 0.12909
4322 228 1 0.089 47.414 38.274 1.008 0.12909
4323 228 1 0.539 45.44 39.709 1.008 0.15086
4324 228 1 3.225 46.969 39.971 1.008 0.07222
4325 228 1 2.387 46.179 41.334 1.008 0.07222
4326 228 1 4.276 44.521 41.529 1.008 0.09202
4327 228 1 4.759 43.695 40.043 1.008 0.09202
4328 228 1 5.096 46.702 40.664 1.008 0.10167
4329 228 1 5.633 45.909 39.11 1.008 0.10167
4330 228 1 7.281 46.337 41.104 1.008 0.08773
4331 228 1 6.524 44.863 41.817 1.008 0.08773
4332 228 1 7.364 44.758 40.171 1.008 0.08773
4333 229 4 37.914 37.102 19.537 15.999 -0.35515
4334 229 2 37.969 38.469 19.455 12.011 0.03297
4335 229 2 37.839 36.436 18.344 12.011 0.01762
4336 229 2 36.625 36.792 17.531 12.011 -0.23743
4337 229 2 36.607 36 16.215 12.011 -0.24423
4338 229 3 38.061 39.057 20.841 12.011 -0.1837
4339 229 3 37.128 39.878 21.269 12.011 -0.23415
4340 229 1 36.305 40.125 20.626 1.008 0.12909
4341 229 1 37.17 40.311 22.251 1.008 0.12909
4342 229 1 38.919 38.758 21.424 1.008 0.15086
4343 229 1 37.007 38.828 18.982 1.008 0.07222
4344 229 1 38.787 38.877 18.861 1.008 0.07222
4345 229 1 38.768 36.614 17.749 1.008 0.09202
4346 229 1 37.86 35.338 18.568 1.008 0.09202
4347 229 1 36.683 37.868 17.242 1.008 0.10167
4348 229 1 35.683 36.579 18.061 1.008 0.10167
4349 229 1 36.066 36.615 15.467 1.008 0.08773
4350 229 1 37.67 35.895 15.87 1.008 0.08773
4351 229 1 36.119 35.022 16.377 1.008 0.08773
4352 230 4 16.228 6.345 49.924 15.999 -0.35515
4353 230 2 16.676 5.061 50.1 12.011 0.03297
4354 230 2 14.868 6.502 49.892 12.011 0.01762
4355 230 2 14.2 5.738 48.783 12.011 -0.23743
4356 230 2 12.682 5.971 48.808 12.011 -0.24423
4357 230 3 18.184 5.051 50.127 12.011 -0.1837
4358 230 3 18.851 4.354 49.234 12.011 -0.23415
4359 230 1 18.315 3.796 48.49 1.008 0.12909
4360 230 1 19.925 4.329 49.23 1.008 0.12909
4361 230 1 18.646 5.639 50.905 1.008 0.15086
4362 230 1 16.333 4.449 49.214 1.008 0.07222
4363 230 1 16.319 4.552 50.996 1.008 0.07222
4364 230 1 14.428 6.216 50.879 1.008 0.09202
4365 230 1 14.657 7.599 49.803 1.008 0.09202
4366 230 1 14.346 4.645 48.955 1.008 0.10167
4367 230 1 14.565 6.03 47.787 1.008 0.10167
4368 230 1 12.202 5.064 48.384 1.008 0.08773
4369 230 1 12.37 6.053 49.884 1.008 0.08773
4370 230 1 12.436 6.878 48.228 1.008 0.08773
4371 231 4 12.208 45.786 15.029 15.999 -0.35515
4372 231 2 11.826 47.094 14.883 12.011 0.03297
4373 231 2 12.13 45.281 16.299 12.011 0.01762
4374 231 2 12.988 46.014 17.291 12.011 -0.23743
4375 231 2 12.855 45.385 18.686 12.011 -0.24423
4376 231 3 11.953 47.501 13.436 12.011 -0.1837
4377 231 3 12.752 48.49 13.1 12.011 -0.23415
4378 231 1 13.309 49.001 13.862 1.008 0.12909
4379 231 1 12.861 48.799 12.078 1.008 0.12909
4380 231 1 11.359 46.936 12.733 1.008 0.15086
4381 231 1 12.53 47.733 15.493 1.008 0.07222
4382 231 1 10.814 47.333 15.212 1.008 0.07222
4383 231 1 11.066 45.27 16.64 1.008 0.09202
4384 231 1 12.416 44.198 16.249 1.008 0.09202
4385 231 1 12.616 47.062 17.389 1.008 0.10167
4386 231 1 14.055 46.001 17.021 1.008 0.10167
4387 231 1 13.036 46.189 19.429 1.008 0.08773
4388 231 1 11.791 45.044 18.802 1.008 0.08773
4389 231 1 13.576 44.555 18.79 1.008 0.08773
4390 232 4 3.79 45.209 45.862 15.999 -0.35515
4391 232 2 4.988 45.493 46.464 12.011 0.03297
4392 232 2 2.965 44.358 46.547 12.011 0.01762
4393 232 2 3.568 43.003 46.792 12.011 -0.23743
4394 232 2 2.582 42.105 47.555 12.011 -0.24423
4395 232 3 5.775 46.447 45.602 12.011 -0.1837
4396 232 3 6.955 46.094 45.143 12.011 -0.23415
4397 232 1 7.35 45.126 45.386 1.008 0.12909
4398 232 1 7.537 46.754 44.526 1.008 0.12909
4399 232 1 5.307 47.399 45.404 1.008 0.15086
4400 232 1 5.57 44.529 46.55 1.008 0.07222
4401 232 1 4.926 45.917 47.467 1.008 0.07222
4402 232 1 2.654 44.825 47.514 1.008 0.09202
4403 232 1 2.011 44.27 45.964 1.008 0.09202
4404 232 1 4.458 43.116 47.455 1.008 0.10167
4405 232 1 3.837 42.484 45.859 1.008 0.10167
4406 232 1 3.183 41.386 48.149 1.008 0.08773
4407 232 1 2.019 42.758 48.275 1.008 0.08773
4408 232 1 1.914 41.595 46.839 1.008 0.08773
4409 233 4 15.005 20.449 42.539 15.999 -0.35515
4410 233 2 15.93 21.024 41.706 12.011 0.03297
4411 233 2 14.177 19.524 41.962 12.011 0.01762
4412 233 2 13.346 20.079 40.839 12.011 -0.23743
4413 233 2 12.439 18.988 40.251 12.011 -0.24423
4414 233 3 16.772 22.004 42.483 12.011 -0.1837
4415 233 3 16.792 23.271 42.135 12.011 -0.23415
4416 233 1 16.206 23.599 41.297 1.008 0.12909
4417 233 1 17.383 23.991 42.671 1.008 0.12909
4418 233 1 17.33 21.594 43.311 1.008 0.15086
4419 233 1 15.37 21.593 40.906 1.008 0.07222
4420 233 1 16.601 20.333 41.194 1.008 0.07222
4421 233 1 14.773 18.648 41.607 1.008 0.09202
4422 233 1 13.524 19.105 42.771 1.008 0.09202
4423 233 1 14.021 20.397 40.01 1.008 0.10167
4424 233 1 12.7 20.911 41.16 1.008 0.10167
4425 233 1 12.265 19.242 39.185 1.008 0.08773
4426 233 1 13.009 18.02 40.284 1.008 0.08773
4427 233 1 11.496 18.94 40.824 1.008 0.08773
4428 234 4 30.35 13.539 29.588 15.999 -0.35515
4429 234 2 29.887 12.273 29.84 12.011 0.03297
4430 234 2 29.405 14.53 29.592 12.011 0.01762
4431 234 2 28.326 14.336 28.564 12.011 -0.23743
4432 234 2 27.312 15.489 28.624 12.011 -0.24423
4433 234 3 31.038 11.299 29.815 12.011 -0.1837
4434 234 3 31.04 10.308 28.952 12.011 -0.23415
4435 234 1 30.219 10.199 28.269 1.008 0.12909
4436 234 1 31.847 9.6 28.914 1.008 0.12909
4437 234 1 31.824 11.479 30.534 1.008 0.15086
4438 234 1 29.17 11.995 29.013 1.008 0.07222
4439 234 1 29.354 12.142 30.782 1.008 0.07222
4440 234 1 28.957 14.625 30.611 1.008 0.09202
4441 234 1 29.938 15.503 29.431 1.008 0.09202
4442 234 1 27.753 13.41 28.809 1.008 0.10167
4443 234 1 28.72 14.293 27.537 1.008 0.10167
4444 234 1 26.336 15.088 28.283 1.008 0.08773
4445 234 1 27.204 15.788 29.701 1.008 0.08773
4446 234 1 27.661 16.323 27.989 1.008 0.08773
4447 235 4 28.702 32.794 25.627 15.999 -0.35515
4448 235 2 28.601 33.2 26.933 12.011 0.03297
4449 235 2 29.545 31.742 25.393 12.011 0.01762
4450 235 2 30.969 32.013 25.791 12.011 -0.23743
4451 235 2 31.853 30.793 25.491 12.011 -0.24423
4452 235 3 27.632 34.351 27.032 12.011 -0.1837
4453 235 3 28.038 35.512 27.497 12.011 -0.23415
4454 235 1 29.06 35.632 27.802 1.008 0.12909
4455 235 1 27.368 36.348 27.578 1.008 0.12909
4456 235 1 26.624 34.148 26.704 1.008 0.15086
4457 235 1 29.619 33.564 27.262 1.008 0.07222
4458 235 1 28.291 32.435 27.645 1.008 0.07222
4459 235 1 29.166 30.827 25.912 1.008 0.09202
4460 235 1 29.477 31.491 24.303 1.008 0.09202
4461 235 1 31.016 32.162 26.896 1.008 0.10167
4462 235 1 31.401 32.875 25.26 1.008 0.10167
4463 235 1 32.689 30.803 26.221 1.008 0.08773
4464 235 1 31.238 29.874 25.686 1.008 0.08773
4465 235 1 32.215 30.844 24.448 1.008 0.08773
4466 236 4 3.431 34.13 10.056 15.999 -0.35515
4467 236 2 2.765 33.283 9.209 12.011 0.03297
4468 236 2 4.233 33.53 10.99 12.011 0.01762
4469 236 2 3.49 32.611 11.919 12.011 -0.23743
4470 236 2 4.452 31.985 12.94 12.011 -0.24423
4471 236 3 1.939 34.086 8.235 12.011 -0.1837
4472 236 3 0.635 33.929 8.196 12.011 -0.23415
4473 236 1 0.166 33.227 8.859 1.008 0.12909
4474 236 1 0.023 34.488 7.512 1.008 0.12909
4475 236 1 2.487 34.77 7.605 1.008 0.15086
4476 236 1 2.064 32.651 9.83 1.008 0.07222
4477 236 1 3.389 32.597 8.636 1.008 0.07222
4478 236 1 5.062 32.979 10.482 1.008 0.09202
4479 236 1 4.75 34.343 11.562 1.008 0.09202
4480 236 1 3.069 31.761 11.33 1.008 0.10167
4481 236 1 2.697 33.128 12.482 1.008 0.10167
4482 236 1 4.034 30.998 13.225 1.008 0.08773
4483 236 1 5.429 31.806 12.416 1.008 0.08773
4484 236 1 4.558 32.656 13.81 1.008 0.08773
4485 237 4 42.093 5.879 23.994 15.999 -0.35515
4486 237 2 41.037 6.508 24.6 12.011 0.03297
4487 237 2 41.895 4.565 23.663 12.011 0.01762
4488 237 2 41.59 3.687 24.844 12.011 -0.23743
4489 237 2 41.39 2.232 24.395 12.011 -0.24423
4490 237 3 41.399 7.943 24.89 12.011 -0.1837
4491 237 3 41.391 8.384 26.128 12.011 -0.23415
4492 237 1 41.125 7.717 26.926 1.008 0.12909
4493 237 1 41.645 9.401 26.362 1.008 0.12909
4494 237 1 41.655 8.547 24.033 1.008 0.15086
4495 237 1 40.84 5.987 25.583 1.008 0.07222
4496 237 1 40.099 6.503 24.044 1.008 0.07222
4497 237 1 41.083 4.484 22.899 1.008 0.09202
4498 237 1 42.814 4.21 23.129 1.008 0.09202
4499 237 1 40.619 4.007 25.294 1.008 0.10167
4500 237 1 42.392 3.695 25.598 1.008 0.10167
4501 237 1 40.694 1.756 25.117 1.008 0.08773
4502 237 1 40.882 2.254 23.393 1.008 0.08773
4503 237 1 42.366 1.716 24.36 1.008 0.08773
4504 238 4 27.022 41.804 11.081 15.999 -0.35515
4505 238 2 27.595 41.403 9.902 12.011 0.03297
4506 238 2 26.347 42.994 11.041 12.011 0.01762
4507 238 2 27.209 44.162 10.651 12.011 -0.23743
4508 238 2 26.385 45.458 10.637 12.011 -0.24423
4509 238 3 28.286 40.077 10.099 12.011 -0.1837
4510 238 3 29.579 39.973 9.883 12.011 -0.23415
4511 238 1 30.134 40.836 9.567 1.008 0.12909
4512 238 1 30.096 39.041 10.016 1.008 0.12909
4513 238 1 27.658 39.26 10.42 1.008 0.15086
4514 238 1 28.374 42.17 9.616 1.008 0.07222
4515 238 1 26.916 41.306 9.053 1.008 0.07222
4516 238 1 25.471 42.912 10.352 1.008 0.09202
4517 238 1 25.89 43.157 12.052 1.008 0.09202
4518 238 1 27.568 44.015 9.604 1.008 0.10167
4519 238 1 28.056 44.313 11.338 1.008 0.10167
4520 238 1 26.849 46.136 9.891 1.008 0.08773
4521 238 1 25.355 45.2 10.272 1.008 0.08773
4522 238 1 26.375 45.902 11.648 1.008 0.08773
4523 239 4 41.81 44.356 41.156 15.999 -0.35515
4524 239 2 42.222 43.672 42.271 12.011 0.03297
4525 239 2 40.473 44.642 41.092 12.011 0.01762
4526 239 2 39.596 43.421 41.103 12.011 -0.23743
4527 239 2 38.115 43.822 41.02 12.011 -0.24423
4528 239 3 43.711 43.445 42.204 12.011 -0.1837
4529 239 3 44.188 42.219 42.207 12.011 -0.23415
4530 239 1 43.51 41.388 42.257 1.008 0.12909
4531 239 1 45.244 42.029 42.161 1.008 0.12909
4532 239 1 44.323 44.333 42.155 1.008 0.15086
4533 239 1 41.709 42.666 42.27 1.008 0.07222
4534 239 1 41.995 44.144 43.227 1.008 0.07222
4535 239 1 40.19 45.33 41.926 1.008 0.09202
4536 239 1 40.302 45.247 40.164 1.008 0.09202
4537 239 1 39.718 42.895 42.08 1.008 0.10167
4538 239 1 39.804 42.741 40.263 1.008 0.10167
4539 239 1 37.53 43.033 41.535 1.008 0.08773
4540 239 1 37.99 44.776 41.6 1.008 0.08773
4541 239 1 37.819 43.931 39.962 1.008 0.08773
4542 240 4 28.874 39.883 28.005 15.999 -0.35515
4543 240 2 27.84 40.718 27.671 12.011 0.03297
4544 240 2 28.884 39.435 29.299 12.011 0.01762
4545 240 2 28.976 40.537 30.317 12.011 -0.23743
4546 240 2 28.991 39.957 31.739 12.011 -0.24423
4547 240 3 27.957 41.114 26.221 12.011 -0.1837
4548 240 3 28.084 42.381 25.895 12.011 -0.23415
4549 240 1 28.103 43.127 26.667 1.008 0.12909
4550 240 1 28.169 42.69 24.87 1.008 0.12909
4551 240 1 27.931 40.304 25.507 1.008 0.15086
4552 240 1 27.93 41.651 28.301 1.008 0.07222
4553 240 1 26.838 40.32 27.832 1.008 0.07222
4554 240 1 27.981 38.804 29.49 1.008 0.09202
4555 240 1 29.745 38.724 29.403 1.008 0.09202
4556 240 1 28.058 41.169 30.252 1.008 0.10167
4557 240 1 29.883 41.149 30.198 1.008 0.10167
4558 240 1 28.544 40.718 32.411 1.008 0.08773
4559 240 1 28.317 39.058 31.744 1.008 0.08773
4560 240 1 30.027 39.707 32.027 1.008 0.08773
4561 241 4 3.935 18.832 50.24 15.999 -0.35515
4562 241 2 2.618 18.733 50.608 12.011 0.03297
4563 241 2 4.618 19.902 50.754 12.011 0.01762
4564 241 2 4.038 21.232 50.359 12.011 -0.23743
4565 241 2 4.861 22.379 50.964 12.011 -0.24423
4566 241 3 2.008 17.506 49.978 12.011 -0.1837
4567 241 3 0.984 17.627 49.163 12.011 -0.23415
4568 241 1 0.59 18.603 48.95 1.008 0.12909
4569 241 1 0.531 16.77 48.701 1.008 0.12909
4570 241 1 2.464 16.564 50.242 1.008 0.15086
4571 241 1 2.077 19.642 50.21 1.008 0.07222
4572 241 1 2.427 18.693 51.68 1.008 0.07222
4573 241 1 4.674 19.819 51.867 1.008 0.09202
4574 241 1 5.683 19.816 50.416 1.008 0.09202
4575 241 1 3.014 21.325 50.793 1.008 0.10167
4576 241 1 4.016 21.377 49.268 1.008 0.10167
4577 241 1 4.174 23.237 51.11 1.008 0.08773
4578 241 1 5.212 22.044 51.978 1.008 0.08773
4579 241 1 5.7 22.63 50.291 1.008 0.08773
4580 242 4 31.006 40.725 17.665 15.999 -0.35515
4581 242 2 31.158 41.678 18.64 12.011 0.03297
4582 242 2 31.992 39.778 17.599 12.011 0.01762
4583 242 2 33.356 40.347 17.329 12.011 -0.23743
4584 242 2 34.404 39.226 17.26 12.011 -0.24423
4585 242 3 29.995 42.637 18.597 12.011 -0.1837
4586 242 3 30.207 43.915 18.378 12.011 -0.23415
4587 242 1 31.21 44.268 18.231 1.008 0.12909
4588 242 1 29.397 44.62 18.342 1.008 0.12909
4589 242 1 29.019 42.202 18.752 1.008 0.15086
4590 242 1 32.102 42.256 18.416 1.008 0.07222
4591 242 1 31.248 41.303 19.66 1.008 0.07222
4592 242 1 32.003 39.174 18.54 1.008 0.09202
4593 242 1 31.702 39.044 16.803 1.008 0.09202
4594 242 1 33.656 40.996 18.186 1.008 0.10167
4595 242 1 33.403 40.905 16.381 1.008 0.10167
4596 242 1 35.373 39.66 17.582 1.008 0.08773
4597 242 1 34.111 38.444 18.012 1.008 0.08773
4598 242 1 34.451 38.824 16.232 1.008 0.08773
4599 243 4 14.594 24.656 47.43 15.999 -0.35515
4600 243 2 14.596 23.812 48.51 12.011 0.03297
4601 243 2 14.026 25.884 47.634 12.011 0.01762
4602 243 2 12.579 25.819 48.037 12.011 -0.23743
4603 243 2 12.012 27.232 48.239 12.011 -0.24423
4604 243 3 15.262 22.511 48.136 12.011 -0.1837
4605 243 3 14.591 21.384 48.216 12.011 -0.23415
4606 243 1 13.57 21.398 48.548 1.008 0.12909
4607 243 1 15.041 20.444 47.955 1.008 0.12909
4608 243 1 16.289 22.584 47.81 1.008 0.15086
4609 243 1 13.522 23.594 48.783 1.008 0.07222
4610 243 1 15.082 24.193 49.409 1.008 0.07222
4611 243 1 14.615 26.453 48.396 1.008 0.09202
4612 243 1 14.151 26.475 46.69 1.008 0.09202
4613 243 1 12.5 25.311 49.027 1.008 0.10167
4614 243 1 11.953 25.314 47.286 1.008 0.10167
4615 243 1 11.2 27.158 48.991 1.008 0.08773
4616 243 1 12.83 27.864 48.678 1.008 0.08773
4617 243 1 11.648 27.628 47.274 1.008 0.08773
4618 244 4 15.437 25.122 12.759 15.999 -0.35515
4619 244 2 15.209 24.193 11.777 12.011 0.03297
4620 244 2 15.14 24.725 14.035 12.011 0.01762
4621 244 2 13.697 24.35 14.229 12.011 -0.23743
4622 244 2 13.441 23.926 15.683 12.011 -0.24423
4623 244 3 15.594 24.768 10.437 12.011 -0.1837
4624 244 3 14.692 24.878 9.487 12.011 -0.23415
4625 244 1 13.685 24.556 9.674 1.008 0.12909
4626 244 1 14.939 25.284 8.524 1.008 0.12909
4627 244 1 16.625 25.069 10.331 1.008 0.15086
4628 244 1 14.102 23.968 11.762 1.008 0.07222
4629 244 1 15.726 23.24 11.896 1.008 0.07222
4630 244 1 15.804 23.877 14.334 1.008 0.09202
4631 244 1 15.431 25.56 14.725 1.008 0.09202
4632 244 1 13.466 23.456 13.602 1.008 0.10167
4633 244 1 13.009 25.178 13.998 1.008 0.10167
4634 244 1 12.6 23.203 15.672 1.008 0.08773
4635 244 1 14.357 23.383 16.042 1.008 0.08773
4636 244 1 13.213 24.817 16.295 1.008 0.08773
4637 245 4 12.8 26.07 36.123 15.999 -0.35515
4638 245 2 11.75 26.691 35.498 12.011 0.03297
4639 245 2 12.679 24.717 36.29 12.011 0.01762
4640 245 2 11.489 24.317 37.117 12.011 -0.23743
4641 245 2 11.427 22.79 37.267 12.011 -0.24423
4642 245 3 12.034 28.167 35.375 12.011 -0.1837
4643 245 3 11.227 29.039 35.939 12.011 -0.23415
4644 245 1 10.37 28.692 36.484 1.008 0.12909
4645 245 1 11.406 30.096 35.866 1.008 0.12909
4646 245 1 12.915 28.432 34.812 1.008 0.15086
4647 245 1 10.834 26.559 36.146 1.008 0.07222
4648 245 1 11.496 26.312 34.507 1.008 0.07222
4649 245 1 12.646 24.211 35.294 1.008 0.09202
4650 245 1 13.63 24.348 36.756 1.008 0.09202
4651 245 1 10.557 24.612 36.579 1.008 0.10167
4652 245 1 11.511 24.751 38.129 1.008 0.10167
4653 245 1 10.359 22.514 37.391 1.008 0.08773
4654 245 1 11.788 22.341 36.303 1.008 0.08773
4655 245 1 12.038 22.477 38.132 1.008 0.08773
4656 246 4 22.61 13.25 27.943 15.999 -0.35515
4657 246 2 23.767 13.674 28.543 12.011 0.03297
4658 246 2 22.765 12.37 26.906 12.011 0.01762
4659 246 2 23.575 12.92 25.765 12.011 -0.23743
4660 246 2 23.696 11.881 24.64 12.011 -0.24423
4661 246 3 23.436 14.622 29.668 12.011 -0.1837
4662 246 3 23.893 15.855 29.643 12.011 -0.23415
4663 246 1 24.501 16.177 28.819 1.008 0.12909
4664 246 1 23.672 16.55 30.431 1.008 0.12909
4665 246 1 22.819 14.22 30.458 1.008 0.15086
4666 246 1 24.372 14.236 27.772 1.008 0.07222
4667 246 1 24.41 12.889 28.942 1.008 0.07222
4668 246 1 23.217 11.418 27.278 1.008 0.09202
4669 246 1 21.741 12.073 26.56 1.008 0.09202
4670 246 1 24.616 13.114 26.119 1.008 0.10167
4671 246 1 23.133 13.83 25.331 1.008 0.10167
4672 246 1 24.653 12.075 24.114 1.008 0.08773
4673 246 1 23.769 10.869 25.122 1.008 0.08773
4674 246 1 22.828 11.964 23.963 1.008 0.08773
4675 247 4 2.587 5.1 38.036 15.999 -0.35515
4676 247 2 1.987 5.584 36.903 12.011 0.03297
4677 247 2 1.932 5.35 39.211 12.011 0.01762
4678 247 2 1.755 6.815 39.501 12.011 -0.23743
4679 247 2 1.022 7.014 40.836 12.011 -0.24423
4680 247 3 2.814 5.22 35.696 12.011 -0.1837
4681 247 3 3.303 6.167 34.926 12.011 -0.23415
4682 247 1 3.109 7.195 35.164 1.008 0.12909
4683 247 1 3.896 5.935 34.061 1.008 0.12909
4684 247 1 2.964 4.164 35.528 1.008 0.15086
4685 247 1 1.952 6.71 36.982 1.008 0.07222
4686 247 1 0.965 5.245 36.726 1.008 0.07222
4687 247 1 0.941 4.833 39.213 1.008 0.09202
4688 247 1 2.507 4.848 40.032 1.008 0.09202
4689 247 1 1.098 7.264 38.719 1.008 0.10167
4690 247 1 2.713 7.353 39.564 1.008 0.10167
4691 247 1 0.468 7.973 40.768 1.008 0.08773
4692 247 1 0.266 6.189 40.934 1.008 0.08773
4693 247 1 1.752 7.016 41.665 1.008 0.08773
4694 248 4 2.681 43.024 32.902 15.999 -0.35515
4695 248 2 2.761 43.012 31.533 12.011 0.03297
4696 248 2 3.617 42.272 33.56 12.011 0.01762
4697 248 2 3.566 40.81 33.214 12.011 -0.23743
4698 248 2 4.636 40.034 33.996 12.011 -0.24423
4699 248 3 1.681 43.891 30.955 12.011 -0.1837
4700 248 3 0.778 43.376 30.149 12.011 -0.23415
4701 248 1 0.818 42.331 29.909 1.008 0.12909
4702 248 1 51.9838 43.98 29.724 1.008 0.12909
4703 248 1 1.71 44.929 31.248 1.008 0.15086
4704 248 1 2.582 41.953 31.184 1.008 0.07222
4705 248 1 3.716 43.329 31.111 1.008 0.07222
4706 248 1 4.639 42.68 33.365 1.008 0.09202
4707 248 1 3.462 42.427 34.659 1.008 0.09202
4708 248 1 3.82 40.682 32.135 1.008 0.10167
4709 248 1 2.59 40.354 33.443 1.008 0.10167
4710 248 1 4.921 39.155 33.382 1.008 0.08773
4711 248 1 5.538 40.698 34.085 1.008 0.08773
4712 248 1 4.234 39.737 34.981 1.008 0.08773
4713 249 4 27.265 15.479 11.385 15.999 -0.35515
4714 249 2 27.329 16.007 10.122 12.011 0.03297
4715 249 2 27.31 14.113 11.463 12.011 0.01762
4716 249 2 26.183 13.432 10.737 12.011 -0.23743
4717 249 2 26.297 11.906 10.878 12.011 -0.24423
4718 249 3 27.282 17.512 10.199 12.011 -0.1837
4719 249 3 26.312 18.17 9.604 12.011 -0.23415
4720 249 1 25.557 17.628 9.067 1.008 0.12909
4721 249 1 26.255 19.242 9.644 1.008 0.12909
4722 249 1 28.078 17.98 10.759 1.008 0.15086
4723 249 1 26.42 15.653 9.552 1.008 0.07222
4724 249 1 28.203 15.726 9.533 1.008 0.07222
4725 249 1 28.295 13.742 11.085 1.008 0.09202
4726 249 1 27.309 13.836 12.549 1.008 0.09202
4727 249 1 26.271 13.648 9.646 1.008 0.10167
4728 249 1 25.194 13.728 11.117 1.008 0.10167
4729 249 1 25.834 11.456 9.975 1.008 0.08773
4730 249 1 27.39 11.647 10.868 1.008 0.08773
4731 249 1 25.795 11.58 11.806 1.008 0.08773
4732 250 4 44.356 44.879 11.36 15.999 -0.35515
4733 250 2 43.72 44.608 10.177 12.011 0.03297
4734 250 2 44.625 43.797 12.154 12.011 0.01762
4735 250 2 43.396 43.042 12.578 12.011 -0.23743
4736 250 2 43.776 41.852 13.471 12.011 -0.24423
4737 250 3 43.506 45.889 9.41 12.011 -0.1837
4738 250 3 42.288 46.273 9.102 12.011 -0.23415
4739 250 1 41.451 45.67 9.399 1.008 0.12909
4740 250 1 42.107 47.181 8.557 1.008 0.12909
4741 250 1 44.399 46.438 9.151 1.008 0.15086
4742 250 1 42.708 44.167 10.42 1.008 0.07222
4743 250 1 44.225 43.901 9.517 1.008 0.07222
4744 250 1 45.341 43.112 11.636 1.008 0.09202
4745 250 1 45.193 44.167 13.047 1.008 0.09202
4746 250 1 42.908 42.606 11.674 1.008 0.10167
4747 250 1 42.687 43.668 13.142 1.008 0.10167
4748 250 1 43 41.072 13.329 1.008 0.08773
4749 250 1 44.75 41.441 13.089 1.008 0.08773
4750 250 1 43.843 42.183 14.522 1.008 0.08773
4751 251 4 25.435 37.388 11.595 15.999 -0.35515
4752 251 2 25.322 37.695 10.264 12.011 0.03297
4753 251 2 25.898 36.131 11.879 12.011 0.01762
4754 251 2 25.028 35.033 11.335 12.011 -0.23743
4755 251 2 25.606 33.657 11.701 12.011 -0.24423
4756 251 3 24.816 39.108 10.112 12.011 -0.1837
4757 251 3 23.685 39.335 9.482 12.011 -0.23415
4758 251 1 23.128 38.51 9.08 1.008 0.12909
4759 251 1 23.302 40.331 9.359 1.008 0.12909
4760 251 1 25.435 39.879 10.545 1.008 0.15086
4761 251 1 24.56 36.995 9.81 1.008 0.07222
4762 251 1 26.234 37.598 9.675 1.008 0.07222
4763 251 1 26.945 36.017 11.505 1.008 0.09202
4764 251 1 25.992 36.05 12.993 1.008 0.09202
4765 251 1 25.035 35.082 10.22 1.008 0.10167
4766 251 1 23.999 35.075 11.723 1.008 0.10167
4767 251 1 25.295 32.947 10.908 1.008 0.08773
4768 251 1 26.725 33.741 11.667 1.008 0.08773
4769 251 1 25.237 33.353 12.697 1.008 0.08773
4770 252 4 6.043 26.884 14.488 15.999 -0.35515
4771 252 2 5.973 26.627 13.143 12.011 0.03297
4772 252 2 6.238 28.194 14.835 12.011 0.01762
4773 252 2 7.515 28.776 14.295 12.011 -0.23743
4774 252 2 7.666 30.24 14.732 12.011 -0.24423
4775 252 3 5.744 25.153 12.92 12.011 -0.1837
4776 252 3 6.62 24.449 12.238 12.011 -0.23415
4777 252 1 7.494 24.931 11.843 1.008 0.12909
4778 252 1 6.481 23.398 12.065 1.008 0.12909
4779 252 1 4.842 24.745 13.351 1.008 0.15086
4780 252 1 6.966 26.905 12.684 1.008 0.07222
4781 252 1 5.205 27.174 12.595 1.008 0.07222
4782 252 1 5.364 28.808 14.508 1.008 0.09202
4783 252 1 6.215 28.253 15.954 1.008 0.09202
4784 252 1 7.464 28.791 13.18 1.008 0.10167
4785 252 1 8.408 28.231 14.639 1.008 0.10167
4786 252 1 8.261 30.758 13.952 1.008 0.08773
4787 252 1 6.64 30.698 14.741 1.008 0.08773
4788 252 1 8.154 30.283 15.722 1.008 0.08773
4789 253 4 36.783 41.344 17.701 15.999 -0.35515
4790 253 2 36.531 42.689 17.628 12.011 0.03297
4791 253 2 37.749 40.871 16.854 12.011 0.01762
4792 253 2 37.435 41.094 15.4 12.011 -0.23743
4793 253 2 38.556 40.53 14.515 12.011 -0.24423
4794 253 3 35.462 43.06 18.624 12.011 -0.1837
4795 253 3 34.336 43.597 18.208 12.011 -0.23415
4796 253 1 34.187 43.768 17.159 1.008 0.12909
4797 253 1 33.558 43.87 18.896 1.008 0.12909
4798 253 1 35.689 42.855 19.659 1.008 0.15086
4799 253 1 36.143 42.914 16.591 1.008 0.07222
4800 253 1 37.389 43.343 17.794 1.008 0.07222
4801 253 1 38.737 41.326 17.11 1.008 0.09202
4802 253 1 37.882 39.779 17.069 1.008 0.09202
4803 253 1 37.406 42.191 15.199 1.008 0.10167
4804 253 1 36.494 40.614 15.092 1.008 0.10167
4805 253 1 38.575 41.132 13.583 1.008 0.08773
4806 253 1 39.528 40.7 15.052 1.008 0.08773
4807 253 1 38.368 39.461 14.313 1.008 0.08773
4808 254 4 8.422 28.271 42.992 15.999 -0.35515
4809 254 2 7.499 27.316 43.331 12.011 0.03297
4810 254 2 7.913 29.473 42.581 12.011 0.01762
4811 254 2 7.043 29.372 41.359 12.011 -0.23743
4812 254 2 6.519 30.758 40.956 12.011 -0.24423
4813 254 3 8.207 26.06 43.773 12.011 -0.1837
4814 254 3 8.01 24.934 43.124 12.011 -0.23415
4815 254 1 7.345 24.917 42.282 1.008 0.12909
4816 254 1 8.502 24.025 43.418 1.008 0.12909
4817 254 1 8.859 26.162 44.627 1.008 0.15086
4818 254 1 6.893 27.076 42.408 1.008 0.07222
4819 254 1 6.791 27.597 44.112 1.008 0.07222
4820 254 1 7.351 29.955 43.418 1.008 0.09202
4821 254 1 8.779 30.161 42.397 1.008 0.09202
4822 254 1 6.141 28.762 41.605 1.008 0.10167
4823 254 1 7.576 28.953 40.492 1.008 0.10167
4824 254 1 5.543 30.608 40.45 1.008 0.08773
4825 254 1 6.33 31.336 41.901 1.008 0.08773
4826 254 1 7.253 31.256 40.298 1.008 0.08773
4827 255 4 41.74 27.525 47.434 15.999 -0.35515
4828 255 2 41.89 28.867 47.666 12.011 0.03297
4829 255 2 42.66 26.958 46.594 12.011 0.01762
4830 255 2 42.666 27.558 45.215 12.011 -0.23743
4831 255 2 43.715 26.866 44.332 12.011 -0.24423
4832 255 3 40.818 29.341 48.614 12.011 -0.1837
4833 255 3 39.972 30.273 48.235 12.011 -0.23415
4834 255 1 40.052 30.692 47.25 1.008 0.12909
4835 255 1 39.199 30.629 48.891 1.008 0.12909
4836 255 1 40.804 28.869 49.585 1.008 0.15086
4837 255 1 41.757 29.407 46.682 1.008 0.07222
4838 255 1 42.856 29.174 48.069 1.008 0.07222
4839 255 1 43.68 27.021 47.048 1.008 0.09202
4840 255 1 42.445 25.859 46.549 1.008 0.09202
4841 255 1 42.979 28.627 45.285 1.008 0.10167
4842 255 1 41.693 27.467 44.709 1.008 0.10167
4843 255 1 44.055 27.609 43.581 1.008 0.08773
4844 255 1 44.593 26.613 44.985 1.008 0.08773
4845 255 1 43.271 25.973 43.859 1.008 0.08773
4846 256 4 12.622 34.77 31.8 15.999 -0.35515
4847 256 2 13.328 33.629 31.519 12.011 0.03297
4848 256 2 13.368 35.901 31.989 12.011 0.01762
4849 256 2 14.34 35.797 33.131 12.011 -0.23743
4850 256 2 15.132 37.104 33.286 12.011 -0.24423
4851 256 3 12.374 32.477 31.324 12.011 -0.1837
4852 256 3 12.45 31.423 32.106 12.011 -0.23415
4853 256 1 13.193 31.391 32.88 1.008 0.12909
4854 256 1 11.783 30.59 31.989 1.008 0.12909
4855 256 1 11.657 32.589 30.525 1.008 0.15086
4856 256 1 13.984 33.399 32.41 1.008 0.07222
4857 256 1 13.981 33.678 30.647 1.008 0.07222
4858 256 1 13.906 36.166 31.046 1.008 0.09202
4859 256 1 12.656 36.752 32.149 1.008 0.09202
4860 256 1 15.093 35.007 32.896 1.008 0.10167
4861 256 1 13.845 35.592 34.093 1.008 0.10167
4862 256 1 16.119 36.843 33.72 1.008 0.08773
4863 256 1 15.308 37.516 32.256 1.008 0.08773
4864 256 1 14.57 37.804 33.929 1.008 0.08773
4865 257 4 30.229 40.133 45.356 15.999 -0.35515
4866 257 2 30.999 39.88 46.461 12.011 0.03297
4867 257 2 29.289 41.119 45.497 12.011 0.01762
4868 257 2 28.281 40.839 46.575 12.011 -0.23743
4869 257 2 27.259 41.982 46.666 12.011 -0.24423
4870 257 3 31.99 38.787 46.149 12.011 -0.1837
4871 257 3 31.974 37.67 46.843 12.011 -0.23415
4872 257 1 31.253 37.546 47.628 1.008 0.12909
4873 257 1 32.668 36.875 46.641 1.008 0.12909
4874 257 1 32.679 38.991 45.344 1.008 0.15086
4875 257 1 30.317 39.516 47.284 1.008 0.07222
4876 257 1 31.552 40.732 46.859 1.008 0.07222
4877 257 1 29.792 42.1 45.682 1.008 0.09202
4878 257 1 28.785 41.249 44.504 1.008 0.09202
4879 257 1 28.802 40.812 47.562 1.008 0.10167
4880 257 1 27.722 39.906 46.402 1.008 0.10167
4881 257 1 26.9 42.021 47.716 1.008 0.08773
4882 257 1 27.804 42.94 46.454 1.008 0.08773
4883 257 1 26.434 41.8 45.954 1.008 0.08773
4884 258 4 47.706 7.072 32.475 15.999 -0.35515
4885 258 2 48.842 7.438 31.801 12.011 0.03297
4886 258 2 46.523 7.435 31.889 12.011 0.01762
4887 258 2 46.37 8.92 31.714 12.011 -0.23743
4888 258 2 45.019 9.249 31.061 12.011 -0.24423
4889 258 3 50.056 6.959 32.558 12.011 -0.1837
4890 258 3 50.944 7.827 32.989 12.011 -0.23415
4891 258 1 50.798 8.873 32.798 1.008 0.12909
4892 258 1 51.817 7.513 33.531 1.008 0.12909
4893 258 1 50.128 5.893 32.709 1.008 0.15086
4894 258 1 48.873 8.566 31.759 1.008 0.07222
4895 258 1 48.922 7.078 30.775 1.008 0.07222
4896 258 1 46.41 6.916 30.906 1.008 0.09202
4897 258 1 45.694 7.021 32.518 1.008 0.09202
4898 258 1 47.151 9.286 31.006 1.008 0.10167
4899 258 1 46.419 9.467 32.668 1.008 0.10167
4900 258 1 45.147 10.193 30.494 1.008 0.08773
4901 258 1 44.794 8.433 30.322 1.008 0.08773
4902 258 1 44.241 9.337 31.84 1.008 0.08773
4903 259 4 17.619 31.777 42.956 15.999 -0.35515
4904 259 2 18.046 32.212 44.183 12.011 0.03297
4905 259 2 16.384 32.218 42.564 12.011 0.01762
4906 259 2 15.276 31.806 43.491 12.011 -0.23743
4907 259 2 13.924 32.328 42.981 12.011 -0.24423
4908 259 3 19.42 31.657 44.468 12.011 -0.1837
4909 259 3 19.612 30.889 45.517 12.011 -0.23415
4910 259 1 18.787 30.662 46.165 1.008 0.12909
4911 259 1 20.58 30.481 45.743 1.008 0.12909
4912 259 1 20.194 31.932 43.767 1.008 0.15086
4913 259 1 17.333 31.81 44.962 1.008 0.07222
4914 259 1 18.085 33.294 44.317 1.008 0.07222
4915 259 1 16.397 33.33 42.445 1.008 0.09202
4916 259 1 16.201 31.832 41.527 1.008 0.09202
4917 259 1 15.436 32.286 44.486 1.008 0.10167
4918 259 1 15.193 30.713 43.593 1.008 0.10167
4919 259 1 13.273 32.477 43.867 1.008 0.08773
4920 259 1 14.106 33.335 42.516 1.008 0.08773
4921 259 1 13.493 31.606 42.266 1.008 0.08773
4922 260 4 33.661 9.325 37.761 15.999 -0.35515
4923 260 2 33.126 8.085 37.524 12.011 0.03297
4924 260 2 33.386 9.868 38.987 12.011 0.01762
4925 260 2 31.917 10.061 39.243 12.011 -0.23743
4926 260 2 31.69 10.681 40.63 12.011 -0.24423
4927 260 3 33.525 7.616 36.147 12.011 -0.1837
4928 260 3 32.6 7.351 35.251 12.011 -0.23415
4929 260 1 31.565 7.471 35.508 1.008 0.12909
4930 260 1 32.857 7.015 34.263 1.008 0.12909
4931 260 1 34.585 7.523 35.969 1.008 0.15086
4932 260 1 32.001 8.182 37.553 1.008 0.07222
4933 260 1 33.397 7.306 38.237 1.008 0.07222
4934 260 1 33.84 9.24 39.793 1.008 0.09202
4935 260 1 33.934 10.843 39.054 1.008 0.09202
4936 260 1 31.418 9.063 39.266 1.008 0.10167
4937 260 1 31.441 10.721 38.502 1.008 0.10167
4938 260 1 30.697 10.337 40.987 1.008 0.08773
4939 260 1 32.468 10.258 41.321 1.008 0.08773
4940 260 1 31.745 11.782 40.558 1.008 0.08773
4941 261 4 37.903 20.114 36.648 15.999 -0.35515
4942 261 2 36.975 19.627 35.765 12.011 0.03297
4943 261 2 39.041 20.631 36.091 12.011 0.01762
4944 261 2 39.817 19.636 35.274 12.011 -0.23743
4945 261 2 41.081 20.286 34.692 12.011 -0.24423
4946 261 3 35.779 19.107 36.522 12.011 -0.1837
4947 261 3 35.43 17.844 36.411 12.011 -0.23415
4948 261 1 36.003 17.191 35.78 1.008 0.12909
4949 261 1 34.583 17.448 36.94 1.008 0.12909
4950 261 1 35.259 19.828 37.135 1.008 0.15086
4951 261 1 37.445 18.763 35.208 1.008 0.07222
4952 261 1 36.618 20.332 35.013 1.008 0.07222
4953 261 1 38.789 21.528 35.472 1.008 0.09202
4954 261 1 39.67 21.039 36.924 1.008 0.09202
4955 261 1 39.2 19.324 34.398 1.008 0.10167
4956 261 1 40.134 18.761 35.862 1.008 0.10167
4957 261 1 41.318 19.758 33.745 1.008 0.08773
4958 261 1 40.826 21.35 34.436 1.008 0.08773
4959 261 1 41.906 20.216 35.423 1.008 0.08773
4960 262 4 8.837 25.357 38.287 15.999 -0.35515
4961 262 2 8.583 24.647 39.432 12.011 0.03297
4962 262 2 7.761 25.993 37.728 12.011 0.01762
4963 262 2 6.652 25.061 37.329 12.011 -0.23743
4964 262 2 5.488 25.845 36.704 12.011 -0.24423
4965 262 3 9.859 24.018 39.932 12.011 -0.1837
4966 262 3 9.945 22.712 40.047 12.011 -0.23415
4967 262 1 9.103 22.101 39.782 1.008 0.12909
4968 262 1 10.842 22.238 40.401 1.008 0.12909
4969 262 1 10.658 24.702 40.175 1.008 0.15086
4970 262 1 7.857 23.821 39.174 1.008 0.07222
4971 262 1 8.141 25.214 40.253 1.008 0.07222
4972 262 1 7.377 26.776 38.428 1.008 0.09202
4973 262 1 8.133 26.572 36.843 1.008 0.09202
4974 262 1 6.239 24.574 38.244 1.008 0.10167
4975 262 1 6.976 24.306 36.596 1.008 0.10167
4976 262 1 4.559 25.274 36.907 1.008 0.08773
4977 262 1 5.413 26.826 37.246 1.008 0.08773
4978 262 1 5.667 25.975 35.622 1.008 0.08773
4979 263 4 28.03 33.931 20.861 15.999 -0.35515
4980 263 2 27.777 34.508 22.078 12.011 0.03297
4981 263 2 28.608 32.691 20.898 12.011 0.01762
4982 263 2 29.945 32.67 21.585 12.011 -0.23743
4983 263 2 30.531 31.251 21.579 12.011 -0.24423
4984 263 3 27.132 35.856 21.875 12.011 -0.1837
4985 263 3 27.718 36.939 22.334 12.011 -0.23415
4986 263 1 28.654 36.855 22.853 1.008 0.12909
4987 263 1 27.28 37.912 22.204 1.008 0.12909
4988 263 1 26.192 35.854 21.343 1.008 0.15086
4989 263 1 28.766 34.664 22.601 1.008 0.07222
4990 263 1 27.146 33.931 22.755 1.008 0.07222
4991 263 1 27.912 31.961 21.381 1.008 0.09202
4992 263 1 28.698 32.328 19.841 1.008 0.09202
4993 263 1 29.806 32.941 22.659 1.008 0.10167
4994 263 1 30.678 33.335 21.105 1.008 0.10167
4995 263 1 31.178 31.157 22.476 1.008 0.08773
4996 263 1 29.676 30.531 21.696 1.008 0.08773
4997 263 1 31.095 31.086 20.644 1.008 0.08773
ITEM: TIMESTEP
10
ITEM: NUMBER OF ATOMS
4997
ITEM: BOX BOUNDS pp pp pp
0.0000000000000000e+00 5.1985757000000000e+01
0.0000000000000000e+00 5.1985757000000000e+01
0.0000000000000000e+00 5.1985757000000000e+01
ITEM: ATOMS id mol type x y z mass q
1 1 4 39.3044 40.1599 9.2776 15.999 -0.35515
2 1 2 39.4532 41.108 8.24918 12.011 0.03297
3 1 2 39.4834 38.8352 8.8351 12.011 0.01762
4 1 2 38.4741 38.4282 7.76015 12.011 -0.23743
5 1 2 38.6977 36.9908 7.35444 12.011 -0.24423
6 1 3 39.2813 42.4666 8.86605 12.011 -0.1837
7 1 3 38.3228 43.2782 8.45924 12.011 -0.23415
8 1 1 37.6549 42.9493 7.66964 1.008 0.12909
9 1 1 38.1714 44.2643 8.87434 1.008 0.12909
10 1 1 39.9714 42.7426 9.65646 1.008 0.15086
11 1 1 38.66 40.9864 7.51064 1.008 0.07222
12 1 1 40.4134 41.0733 7.73596 1.008 0.07222
13 1 1 40.4991 38.6974 8.46355 1.008 0.09202
14 1 1 39.377 38.1977 9.7113 1.008 0.09202
15 1 1 38.622 39.018 6.85829 1.008 0.10167
16 1 1 37.4436 38.5557 8.09636 1.008 0.10167
17 1 1 38.3544 36.8519 6.33154 1.008 0.08773
18 1 1 39.7611 36.7649 7.38815 1.008 0.08773
19 1 1 38.1558 36.3188 8.01685 1.008 0.08773
20 2 4 12.0578 26.0312 41.2118 15.999 -0.35515
21 2 2 13.2373 26.7588 41.0536 12.011 0.03297
22 2 2 11.8154 25.5808 42.5208 12.011 0.01762
23 2 2 12.9264 24.6722 43.0434 12.011 -0.23743
24 2 2 12.6044 24.2183 44.4446 12.011 -0.24423
25 2 3 13.3275 27.1896 39.6242 12.011 -0.1837
26 2 3 14.3578 26.8319 38.8839 12.011 -0.23415
27 2 1 15.1381 26.2179 39.3154 1.008 0.12909
28 2 1 14.45 27.1277 37.8495 1.008 0.12909
29 2 1 12.5188 27.7996 39.2311 1.008 0.15086
30 2 1 14.0983 26.1302 41.2674 1.008 0.07222
31 2 1 13.2765 27.6452 41.6623 1.008 0.07222
32 2 1 11.6767 26.4377 43.1759 1.008 0.09202
33 2 1 10.8679 25.0417 42.5063 1.008 0.09202
34 2 1 13.8607 25.2183 43.1158 1.008 0.10167
35 2 1 13.0865 23.8035 42.4052 1.008 0.10167
36 2 1 13.5284 24.0041 44.9752 1.008 0.08773
37 2 1 12.0863 25.0137 44.9733 1.008 0.08773
38 2 1 11.9856 23.3253 44.4249 1.008 0.08773
39 3 4 15.4051 42.5199 6.19596 15.999 -0.35515
40 3 2 14.5654 42.0408 5.17763 12.011 0.03297
41 3 2 15.7943 41.5278 7.1173 12.011 0.01762
42 3 2 14.606 40.9245 7.85154 12.011 -0.23743
43 3 2 15.0815 39.8971 8.84743 12.011 -0.24423
44 3 3 14.2844 43.1819 4.2453 12.011 -0.1837
45 3 3 13.0507 43.6078 4.05208 12.011 -0.23415
46 3 1 12.2365 43.1214 4.5771 1.008 0.12909
47 3 1 12.8145 44.4252 3.38505 1.008 0.12909
48 3 1 15.1335 43.6325 3.74211 1.008 0.15086
49 3 1 13.6151 41.7369 5.61125 1.008 0.07222
50 3 1 14.9635 41.2109 4.60004 1.008 0.07222
51 3 1 16.3571 40.74 6.61708 1.008 0.09202
52 3 1 16.479 42.0064 7.8189 1.008 0.09202
53 3 1 13.9619 40.3954 7.15427 1.008 0.10167
54 3 1 14.0207 41.689 8.36245 1.008 0.10167
55 3 1 14.2906 39.1689 9.00749 1.008 0.08773
56 3 1 15.9486 39.3773 8.44752 1.008 0.08773
57 3 1 15.3386 40.3742 9.79126 1.008 0.08773
58 4 4 39.9925 26.4927 17.6842 15.999 -0.35515
59 4 2 39.8234 27.8315 18.0798 12.011 0.03297
60 4 2 38.7817 25.7802 17.6034 12.011 0.01762
61 4 2 38.0491 25.7146 18.9441 12.011 -0.23743
62 4 2 36.7773 24.9142 18.8027 12.011 -0.24423
63 4 3 41.1796 28.4763 18.0794 12.011 -0.1837
64 4 3 41.6839 28.9935 19.1844 12.011 -0.23415
65 4 1 41.107 28.9484 20.1014 1.008 0.12909
66 4 1 42.6573 29.4662 19.2159 1.008 0.12909
67 4 1 41.7219 28.49 17.1373 1.008 0.15086
68 4 1 39.4517 27.8712 19.1038 1.008 0.07222
69 4 1 39.1578 28.4128 17.4435 1.008 0.07222
70 4 1 38.1355 26.2271 16.8471 1.008 0.09202
71 4 1 39.0327 24.7752 17.2625 1.008 0.09202
72 4 1 37.7411 26.7091 19.2587 1.008 0.10167
73 4 1 38.6692 25.2762 19.7273 1.008 0.10167
74 4 1 36.0597 25.2481 19.5486 1.008 0.08773
75 4 1 36.3502 25.0837 17.8172 1.008 0.08773
76 4 1 36.9797 23.8539 18.9348 1.008 0.08773
77 5 4 34.6198 1.93347 36.3159 15.999 -0.35515
78 5 2 34.0804 1.78083 37.6034 12.011 0.03297
79 5 2 36.0198 2.08372 36.3137 12.011 0.01762
80 5 2 36.4837 3.31235 37.097 12.011 -0.23743
81 5 2 37.9864 3.43445 37.0314 12.011 -0.24423
82 5 3 32.5986 1.59205 37.4533 12.011 -0.1837
83 5 3 31.7499 2.43437 38.0104 12.011 -0.23415
84 5 1 32.1328 3.27052 38.5855 1.008 0.12909
85 5 1 30.6769 2.32472 37.9228 1.008 0.12909
86 5 1 32.2663 0.741808 36.8634 1.008 0.15086
87 5 1 34.229 2.69335 38.1793 1.008 0.07222
88 5 1 34.4875 0.940808 38.1606 1.008 0.07222
89 5 1 36.4912 1.1866 36.7158 1.008 0.09202
90 5 1 36.3245 2.17027 35.2703 1.008 0.09202
91 5 1 36.2423 3.20695 38.1506 1.008 0.10167
92 5 1 36.0298 4.23134 36.7242 1.008 0.10167
93 5 1 38.3402 3.96131 37.9155 1.008 0.08773
94 5 1 38.4315 2.44254 37.0267 1.008 0.08773
95 5 1 38.2855 3.97766 36.136 1.008 0.08773
96 6 4 21.3323 23.1379 20.3719 15.999 -0.35515
97 6 2 20.0402 23.2637 19.8314 12.011 0.03297
98 6 2 22.3492 23.444 19.4477 12.011 0.01762
99 6 2 22.3274 22.5234 18.2296 12.011 -0.23743
100 6 2 23.4545 22.8774 17.2929 12.011 -0.24423
101 6 3 19.0562 22.9621 20.923 12.011 -0.1837
102 6 3 18.2034 21.9609 20.8164 12.011 -0.23415
103 6 1 18.2126 21.3572 19.9169 1.008 0.12909
104 6 1 17.4916 21.7161 21.5933 1.008 0.12909
105 6 1 19.0975 23.5843 21.8113 1.008 0.15086
106 6 1 19.889 22.5171 19.0531 1.008 0.07222
107 6 1 19.8149 24.2459 19.4219 1.008 0.07222
108 6 1 22.2696 24.4844 19.1312 1.008 0.09202
109 6 1 23.2954 23.3394 19.9773 1.008 0.09202
110 6 1 21.413 22.6634 17.658 1.008 0.10167
111 6 1 22.4054 21.4719 18.5134 1.008 0.10167
112 6 1 23.1787 22.6039 16.2814 1.008 0.08773
113 6 1 23.6173 23.9501 17.3047 1.008 0.08773
114 6 1 24.3618 22.3455 17.5753 1.008 0.08773
115 7 4 3.76795 32.6944 4.29396 15.999 -0.35515
116 7 2 2.73784 31.7945 4.61233 12.011 0.03297
117 7 2 3.9162 32.8848 2.90811 12.011 0.01762
118 7 2 4.23594 31.5989 2.15769 12.011 -0.23743
119 7 2 4.44707 31.856 0.692284 12.011 -0.24423
120 7 3 2.6682 31.6965 6.09804 12.011 -0.1837
121 7 3 2.84355 30.5793 6.76444 12.011 -0.23415
122 7 1 3.0466 29.6882 6.213 1.008 0.12909
123 7 1 2.79273 30.4944 7.83856 1.008 0.12909
124 7 1 2.46612 32.6173 6.58555 1.008 0.15086
125 7 1 2.97971 30.8076 4.25819 1.008 0.07222
126 7 1 1.75697 32.0629 4.23129 1.008 0.07222
127 7 1 3.01189 33.3167 2.49028 1.008 0.09202
128 7 1 4.71981 33.6089 2.77854 1.008 0.09202
129 7 1 3.43851 30.8699 2.24766 1.008 0.10167
130 7 1 5.12015 31.1474 2.55114 1.008 0.10167
131 7 1 4.21999 30.9492 0.139153 1.008 0.08773
132 7 1 3.7579 32.6338 0.383965 1.008 0.08773
133 7 1 5.47245 32.1648 0.494998 1.008 0.08773
134 8 4 20.4802 9.31483 27.2445 15.999 -0.35515
135 8 2 20.9497 7.99967 27.1176 12.011 0.03297
136 8 2 19.7987 9.78024 26.1035 12.011 0.01762
137 8 2 20.7058 9.81955 24.8809 12.011 -0.23743
138 8 2 19.9618 10.3684 23.692 12.011 -0.24423
139 8 3 21.5661 7.61758 28.4282 12.011 -0.1837
140 8 3 22.8371 7.28089 28.4908 12.011 -0.23415
141 8 1 23.4358 7.30232 27.5847 1.008 0.12909
142 8 1 23.3218 7.0071 29.4192 1.008 0.12909
143 8 1 20.9349 7.62402 29.3099 1.008 0.15086
144 8 1 21.7384 7.97998 26.367 1.008 0.07222
145 8 1 20.196 7.25742 26.8605 1.008 0.07222
146 8 1 18.9239 9.16182 25.8978 1.008 0.09202
147 8 1 19.4348 10.7813 26.3425 1.008 0.09202
148 8 1 21.0272 8.81895 24.6083 1.008 0.10167
149 8 1 21.5871 10.4211 25.0634 1.008 0.10167
150 8 1 20.4068 9.97293 22.7825 1.008 0.08773
151 8 1 18.9269 10.0398 23.7377 1.008 0.08773
152 8 1 20.0032 11.456 23.6809 1.008 0.08773
153 9 4 37.6673 4.75117 32.8574 15.999 -0.35515
154 9 2 38.057 3.91826 31.7981 12.011 0.03297
155 9 2 37.2686 6.03317 32.4385 12.011 0.01762
156 9 2 38.3744 6.7809 31.7153 12.011 -0.23743
157 9 2 37.8804 8.15468 31.3454 12.011 -0.24423
158 9 3 38.4022 2.57992 32.3816 12.011 -0.1837
159 9 3 39.611 2.07177 32.2375 12.011 -0.23415
160 9 1 40.3537 2.63765 31.6939 1.008 0.12909
161 9 1 39.8955 1.11178 32.6436 1.008 0.12909
162 9 1 37.6202 2.06017 32.9263 1.008 0.15086
163 9 1 38.9563 4.30956 31.3276 1.008 0.07222
164 9 1 37.2979 3.78469 31.0352 1.008 0.07222
165 9 1 36.3963 5.96731 31.7913 1.008 0.09202
166 9 1 36.9732 6.58281 33.3329 1.008 0.09202
167 9 1 38.6504 6.28567 30.791 1.008 0.10167
168 9 1 39.258 6.86382 32.3372 1.008 0.10167
169 9 1 38.3773 8.53097 30.4794 1.008 0.08773
170 9 1 36.8435 8.12512 31.0575 1.008 0.08773
171 9 1 38.0562 8.86051 32.1414 1.008 0.08773
172 10 4 29.6101 27.6144 33.6796 15.999 -0.35515
173 10 2 29.8579 26.9783 34.9089 12.011 0.03297
174 10 2 28.6611 26.94 32.8884 12.011 0.01762
175 10 2 29.0982 25.5186 32.529 12.011 -0.23743
176 10 2 28.0585 24.8597 31.6555 12.011 -0.24423
177 10 3 30.8411 27.8272 35.6581 12.011 -0.1837
178 10 3 32.0126 27.3422 36.0161 12.011 -0.23415
179 10 1 32.2453 26.3178 35.7568 1.008 0.12909
180 10 1 32.7508 27.9135 36.5639 1.008 0.12909
181 10 1 30.5524 28.8459 35.8852 1.008 0.15086
182 10 1 30.3296 26.0099 34.7396 1.008 0.07222
183 10 1 28.9764 26.833 35.5312 1.008 0.07222
184 10 1 27.6984 26.9156 33.4004 1.008 0.09202
185 10 1 28.5309 27.5337 31.9828 1.008 0.09202
186 10 1 29.1693 24.9041 33.4236 1.008 0.10167
187 10 1 30.0618 25.5059 32.0181 1.008 0.10167
188 10 1 28.1065 23.7821 31.793 1.008 0.08773
189 10 1 27.0702 25.1979 31.9555 1.008 0.08773
190 10 1 28.2281 25.1054 30.6088 1.008 0.08773
191 11 4 31.4225 26.2049 41.9705 15.999 -0.35515
192 11 2 32.6895 26.2688 41.3596 12.011 0.03297
193 11 2 30.4692 25.554 41.1679 12.011 0.01762
194 11 2 30.2442 26.2605 39.8299 12.011 -0.23743
195 11 2 29.1886 25.5385 39.0297 12.011 -0.24423
196 11 3 33.6518 26.8468 42.3162 12.011 -0.1837
197 11 3 34.3787 27.9353 41.9441 12.011 -0.23415
198 11 1 34.1284 28.3976 41.0169 1.008 0.12909
199 11 1 34.9716 28.4646 42.6554 1.008 0.12909
200 11 1 33.746 26.4539 43.3065 1.008 0.15086
201 11 1 32.6522 26.9075 40.4792 1.008 0.07222
202 11 1 33.1198 25.3095 41.0923 1.008 0.07222
203 11 1 30.7652 24.519 40.9982 1.008 0.09202
204 11 1 29.5443 25.5323 41.7423 1.008 0.09202
205 11 1 31.1471 26.232 39.227 1.008 0.10167
206 11 1 29.9499 27.3015 39.9635 1.008 0.10167
207 11 1 29.3592 25.7143 37.9707 1.008 0.08773
208 11 1 29.2714 24.4704 39.2091 1.008 0.08773
209 11 1 28.1953 25.8871 39.3075 1.008 0.08773
210 12 4 4.52131 10.8527 46.2657 15.999 -0.35515
211 12 2 5.4177 11.6733 45.5589 12.011 0.03297
212 12 2 4.62048 10.9958 47.6625 12.011 0.01762
213 12 2 6.00792 10.6313 48.1945 12.011 -0.23743
214 12 2 6.04202 10.7736 49.6971 12.011 -0.24423
215 12 3 5.17209 11.4489 44.0948 12.011 -0.1837
216 12 3 6.13249 10.9977 43.309 12.011 -0.23415
217 12 1 7.10873 10.7895 43.7318 1.008 0.12909
218 12 1 5.9904 10.8307 42.2497 1.008 0.12909
219 12 1 4.1767 11.67 43.7199 1.008 0.15086
220 12 1 6.44349 11.3653 45.7621 1.008 0.07222
221 12 1 5.32309 12.7366 45.7735 1.008 0.07222
222 12 1 4.36494 12.0157 47.9515 1.008 0.09202
223 12 1 3.86708 10.3387 48.0979 1.008 0.09202
224 12 1 6.75394 11.3236 47.8115 1.008 0.10167
225 12 1 6.29649 9.61661 47.9179 1.008 0.10167
226 12 1 7.06057 10.9879 50.0119 1.008 0.08773
227 12 1 5.41201 11.6087 49.9955 1.008 0.08773
228 12 1 5.69306 9.86016 50.1749 1.008 0.08773
229 13 4 37.0783 48.1039 16.0281 15.999 -0.35515
230 13 2 37.7982 49.2018 15.5275 12.011 0.03297
231 13 2 37.8022 46.8979 15.9905 12.011 0.01762
232 13 2 38.2127 46.5005 14.5712 12.011 -0.23743
233 13 2 38.957 45.1878 14.5937 12.011 -0.24423
234 13 3 36.9233 50.4142 15.6668 12.011 -0.1837
235 13 3 36.5697 51.1187 14.6079 12.011 -0.23415
236 13 1 36.9187 50.8126 13.6278 1.008 0.12909
237 13 1 35.9454 0.0138611 14.675 1.008 0.12909
238 13 1 36.5973 50.6766 16.6697 1.008 0.15086
239 13 1 37.9909 49.0669 14.4632 1.008 0.07222
240 13 1 38.7436 49.3891 16.0337 1.008 0.07222
241 13 1 38.6844 46.975 16.6258 1.008 0.09202
242 13 1 37.1575 46.133 16.425 1.008 0.09202
243 13 1 38.9047 47.2302 14.1581 1.008 0.10167
244 13 1 37.3561 46.422 13.9023 1.008 0.10167
245 13 1 39.6314 45.1464 13.7414 1.008 0.08773
246 13 1 39.553 45.126 15.5014 1.008 0.08773
247 13 1 38.2595 44.3541 14.552 1.008 0.08773
248 14 4 16.7041 7.49758 28.6458 15.999 -0.35515
249 14 2 16.3672 8.86038 28.6242 12.011 0.03297
250 14 2 15.6147 6.64633 28.394 12.011 0.01762
251 14 2 14.4464 6.82976 29.367 12.011 -0.23743
252 14 2 13.3311 5.8746 29.0189 12.011 -0.24423
253 14 3 17.6048 9.64534 28.9195 12.011 -0.1837
254 14 3 17.6556 10.5012 29.9202 12.011 -0.23415
255 14 1 16.8033 10.5914 30.5781 1.008 0.12909
256 14 1 18.5553 11.0494 30.1696 1.008 0.12909
257 14 1 18.4541 9.47778 28.2834 1.008 0.15086
258 14 1 15.6531 9.10501 29.4095 1.008 0.07222
259 14 1 15.9739 9.18827 27.6677 1.008 0.07222
260 14 1 15.2801 6.81262 27.3724 1.008 0.09202
261 14 1 15.995 5.626 28.4545 1.008 0.09202
262 14 1 14.0263 7.82813 29.2734 1.008 0.10167
263 14 1 14.7395 6.67122 30.4045 1.008 0.10167
264 14 1 12.3845 6.29794 29.3479 1.008 0.08773
265 14 1 13.2898 5.74604 27.9397 1.008 0.08773
266 14 1 13.49 4.91153 29.5001 1.008 0.08773
267 15 4 10.3018 39.4693 45.5662 15.999 -0.35515
268 15 2 9.46677 39.365 44.4401 12.011 0.03297
269 15 2 11.6442 39.1441 45.2949 12.011 0.01762
270 15 2 11.8148 37.7082 44.7941 12.011 -0.23743
271 15 2 13.275 37.4123 44.5514 12.011 -0.24423
272 15 3 8.08632 39.7752 44.8657 12.011 -0.1837
273 15 3 7.07075 38.9383 44.7654 12.011 -0.23415
274 15 1 7.24077 37.9435 44.3689 1.008 0.12909
275 15 1 6.06354 39.2065 45.0566 1.008 0.12909
276 15 1 7.96734 40.7824 45.2567 1.008 0.15086
277 15 1 9.4054 38.3258 44.1163 1.008 0.07222
278 15 1 9.77136 39.9777 43.5932 1.008 0.07222
279 15 1 12.0557 39.8445 44.5678 1.008 0.09202
280 15 1 12.1942 39.2854 46.226 1.008 0.09202
281 15 1 11.3197 37.5805 43.8344 1.008 0.10167
282 15 1 11.4078 36.9811 45.4973 1.008 0.10167
283 15 1 13.3612 36.6412 43.7893 1.008 0.08773
284 15 1 13.7684 38.3097 44.1846 1.008 0.08773
285 15 1 13.7543 37.0777 45.4697 1.008 0.08773
286 16 4 22.9111 40.8854 29.6771 15.999 -0.35515
287 16 2 22.9798 41.469 28.3991 12.011 0.03297
288 16 2 23.9027 39.9109 29.8968 12.011 0.01762
289 16 2 23.8096 38.7451 28.9105 12.011 -0.23743
290 16 2 24.8743 37.7229 29.2145 12.011 -0.24423
291 16 3 21.8991 42.5087 28.3211 12.011 -0.1837
292 16 3 20.9449 42.4267 27.412 12.011 -0.23415
293 16 1 20.9459 41.5962 26.7151 1.008 0.12909
294 16 1 20.1553 43.162 27.3278 1.008 0.12909
295 16 1 21.9383 43.32 29.0434 1.008 0.15086
296 16 1 22.7591 40.7224 27.636 1.008 0.07222
297 16 1 23.9351 41.9359 28.1646 1.008 0.07222
298 16 1 24.8909 40.3681 29.8415 1.008 0.09202
299 16 1 23.769 39.5524 30.9188 1.008 0.09202
300 16 1 24.0057 39.0864 27.8967 1.008 0.10167
301 16 1 22.83 38.2667 28.9357 1.008 0.10167
302 16 1 25.1236 37.1823 28.3049 1.008 0.08773
303 16 1 25.7686 38.2277 29.5693 1.008 0.08773
304 16 1 24.521 37.0276 29.973 1.008 0.08773
305 17 4 19.5461 38.1659 46.788 15.999 -0.35515
306 17 2 20.7313 37.5036 47.1508 12.011 0.03297
307 17 2 18.4353 37.7766 47.5596 12.011 0.01762
308 17 2 18.1221 36.2843 47.431 12.011 -0.23743
309 17 2 16.9056 35.9367 48.254 12.011 -0.24423
310 17 3 21.8296 38.0418 46.284 12.011 -0.1837
311 17 3 22.5095 37.2407 45.4858 12.011 -0.23415
312 17 1 22.2726 36.1862 45.453 1.008 0.12909
313 17 1 23.3139 37.5875 44.8563 1.008 0.12909
314 17 1 22.0333 39.1068 46.3441 1.008 0.15086
315 17 1 20.6466 36.4394 46.9315 1.008 0.07222
316 17 1 21.0178 37.6243 48.1939 1.008 0.07222
317 17 1 18.6003 38.0351 48.606 1.008 0.09202
318 17 1 17.5899 38.3703 47.2107 1.008 0.09202
319 17 1 18.9375 35.6892 47.8354 1.008 0.10167
320 17 1 17.9562 35.9914 46.3943 1.008 0.10167
321 17 1 16.9629 34.892 48.5502 1.008 0.08773
322 17 1 16.8928 36.5452 49.1555 1.008 0.08773
323 17 1 15.9959 36.1076 47.6816 1.008 0.08773
324 18 4 33.5564 23.2565 37.6696 15.999 -0.35515
325 18 2 33.3153 24.6061 37.9321 12.011 0.03297
326 18 2 32.7692 22.3133 38.2997 12.011 0.01762
327 18 2 32.9144 22.4161 39.8037 12.011 -0.23743
328 18 2 32.0288 21.3945 40.4531 12.011 -0.24423
329 18 3 34.2339 25.4798 37.1197 12.011 -0.1837
330 18 3 35.0814 26.3123 37.6971 12.011 -0.23415
331 18 1 35.1276 26.3316 38.7772 1.008 0.12909
332 18 1 35.7844 26.9098 37.134 1.008 0.12909
333 18 1 34.2081 25.3676 36.0373 1.008 0.15086
334 18 1 33.5587 24.783 38.9709 1.008 0.07222
335 18 1 32.2956 24.8896 37.7149 1.008 0.07222
336 18 1 31.7485 22.4792 37.9736 1.008 0.09202
337 18 1 33.1025 21.3396 37.9296 1.008 0.09202
338 18 1 32.5665 23.3847 40.1376 1.008 0.10167
339 18 1 33.9468 22.282 40.1264 1.008 0.10167
340 18 1 31.748 21.7494 41.4392 1.008 0.08773
341 18 1 31.1245 21.2708 39.8635 1.008 0.08773
342 18 1 32.5498 20.4431 40.5349 1.008 0.08773
343 19 4 44.7131 25.2411 50.6691 15.999 -0.35515
344 19 2 44.682 26.518 50.0845 12.011 0.03297
345 19 2 44.9134 24.2096 49.7339 12.011 0.01762
346 19 2 43.8106 24.1454 48.6798 12.011 -0.23743
347 19 2 44.064 23.0216 47.7141 12.011 -0.24423
348 19 3 44.5055 27.5127 51.1946 12.011 -0.1837
349 19 3 43.4616 28.3185 51.2212 12.011 -0.23415
350 19 1 42.7307 28.2501 50.4278 1.008 0.12909
351 19 1 43.306 29.0516 0.0151188 1.008 0.12909
352 19 1 45.2692 27.536 51.9658 1.008 0.15086
353 19 1 43.8127 26.6076 49.4333 1.008 0.07222
354 19 1 45.5737 26.7787 49.517 1.008 0.07222
355 19 1 45.8806 24.3188 49.2521 1.008 0.09202
356 19 1 44.9592 23.2845 50.3008 1.008 0.09202
357 19 1 43.8201 25.0399 48.0787 1.008 0.10167
358 19 1 42.8253 24.0338 49.1284 1.008 0.10167
359 19 1 43.6046 23.2336 46.7572 1.008 0.08773
360 19 1 45.1333 22.8841 47.5794 1.008 0.08773
361 19 1 43.6249 22.1164 48.1003 1.008 0.08773
362 20 4 39.1519 27.9419 30.1896 15.999 -0.35515
363 20 2 39.1738 29.2636 30.6583 12.011 0.03297
364 20 2 39.55 27.813 28.8441 12.011 0.01762
365 20 2 38.5973 28.547 27.9084 12.011 -0.23743
366 20 2 39.0269 28.3529 26.4765 12.011 -0.24423
367 20 3 38.8129 29.2317 32.1153 12.011 -0.1837
368 20 3 37.7387 29.8511 32.5611 12.011 -0.23415
369 20 1 37.1189 30.3904 31.8614 1.008 0.12909
370 20 1 37.4498 29.8572 33.6016 1.008 0.12909
371 20 1 39.4671 28.6798 32.7804 1.008 0.15086
372 20 1 38.395 29.8193 30.1421 1.008 0.07222
373 20 1 40.1215 29.7871 30.5397 1.008 0.07222
374 20 1 40.5707 28.1753 28.7046 1.008 0.09202
375 20 1 39.5597 26.7445 28.62 1.008 0.09202
376 20 1 38.639 29.6174 28.0942 1.008 0.10167
377 20 1 37.5687 28.2079 28.0337 1.008 0.10167
378 20 1 38.689 29.2015 25.8869 1.008 0.08773
379 20 1 40.113 28.3148 26.4245 1.008 0.08773
380 20 1 38.6061 27.4337 26.0742 1.008 0.08773
381 21 4 35.1874 23.2384 35.9644 15.999 -0.35515
382 21 2 36.4971 23.0994 36.3822 12.011 0.03297
383 21 2 34.799 22.8076 34.7109 12.011 0.01762
384 21 2 35.5725 23.5737 33.6594 12.011 -0.23743
385 21 2 35.167 23.0776 32.3046 12.011 -0.24423
386 21 3 36.6574 23.5517 37.8071 12.011 -0.1837
387 21 3 37.4858 24.5356 38.0968 12.011 -0.23415
388 21 1 38.0193 25.0172 37.2868 1.008 0.12909
389 21 1 37.6154 24.9144 39.1005 1.008 0.12909
390 21 1 36.052 23.0617 38.5676 1.008 0.15086
391 21 1 37.0987 23.7399 35.7541 1.008 0.07222
392 21 1 36.8105 22.084 36.3208 1.008 0.07222
393 21 1 34.9648 21.7393 34.6678 1.008 0.09202
394 21 1 33.7213 22.9818 34.6326 1.008 0.09202
395 21 1 36.633 23.37 33.7688 1.008 0.10167
396 21 1 35.4123 24.6501 33.7339 1.008 0.10167
397 21 1 35.9954 23.2252 31.6196 1.008 0.08773
398 21 1 34.9526 22.0126 32.3612 1.008 0.08773
399 21 1 34.2889 23.6135 31.9525 1.008 0.08773
400 22 4 22.839 5.52388 20.8024 15.999 -0.35515
401 22 2 22.2626 6.55427 21.5643 12.011 0.03297
402 22 2 24.1816 5.77247 20.4602 12.011 0.01762
403 22 2 24.3527 7.03659 19.6191 12.011 -0.23743
404 22 2 25.8062 7.22716 19.2585 12.011 -0.24423
405 22 3 20.8562 6.1407 21.8898 12.011 -0.1837
406 22 3 19.8284 6.87086 21.4975 12.011 -0.23415
407 22 1 20.0081 7.77926 20.9326 1.008 0.12909
408 22 1 18.8036 6.60168 21.7179 1.008 0.12909
409 22 1 20.727 5.22054 22.4527 1.008 0.15086
410 22 1 22.1982 7.4641 20.9672 1.008 0.07222
411 22 1 22.7871 6.77959 22.4916 1.008 0.07222
412 22 1 24.7911 5.83345 21.3625 1.008 0.09202
413 22 1 24.5262 4.90837 19.8944 1.008 0.09202
414 22 1 24.0696 7.91431 20.1945 1.008 0.10167
415 22 1 23.7532 7.0051 18.7087 1.008 0.10167
416 22 1 25.9993 8.28666 19.1058 1.008 0.08773
417 22 1 26.4316 6.88264 20.0793 1.008 0.08773
418 22 1 26.0502 6.67471 18.3531 1.008 0.08773
419 23 4 44.0061 14.4681 8.40249 15.999 -0.35515
420 23 2 44.6398 14.1883 7.19434 12.011 0.03297
421 23 2 42.9357 13.615 8.69426 12.011 0.01762
422 23 2 41.8322 13.6141 7.64021 12.011 -0.23743
423 23 2 40.7204 12.6698 8.02692 12.011 -0.24423
424 23 3 45.7462 15.1883 7.03583 12.011 -0.1837
425 23 3 45.7815 15.9914 5.98816 12.011 -0.23415
426 23 1 44.9957 15.927 5.2442 1.008 0.12909
427 23 1 46.5704 16.7157 5.83661 1.008 0.12909
428 23 1 46.5055 15.2188 7.81269 1.008 0.15086
429 23 1 43.9476 14.3336 6.36681 1.008 0.07222
430 23 1 45.0506 13.1848 7.15188 1.008 0.07222
431 23 1 43.3301 12.6124 8.82348 1.008 0.09202
432 23 1 42.5358 13.946 9.65235 1.008 0.09202
433 23 1 42.2203 13.2382 6.69997 1.008 0.10167
434 23 1 41.4194 14.6092 7.48836 1.008 0.10167
435 23 1 40.2214 12.3071 7.13696 1.008 0.08773
436 23 1 41.135 11.8022 8.52716 1.008 0.08773
437 23 1 40.006 13.1668 8.67704 1.008 0.08773
438 24 4 35.6139 14.4872 15.9636 15.999 -0.35515
439 24 2 34.6682 15.0647 15.0986 12.011 0.03297
440 24 2 35.6416 13.082 15.8897 12.011 0.01762
441 24 2 34.3072 12.4428 16.2707 12.011 -0.23743
442 24 2 34.4134 10.9386 16.2061 12.011 -0.24423
443 24 3 34.7747 16.5551 15.2486 12.011 -0.1837
444 24 3 33.7398 17.2703 15.6484 12.011 -0.23415
445 24 1 32.804 16.7694 15.8704 1.008 0.12909
446 24 1 33.7827 18.3455 15.7614 1.008 0.12909
447 24 1 35.7346 17.0087 15.0166 1.008 0.15086
448 24 1 33.6611 14.7833 15.4071 1.008 0.07222
449 24 1 34.7963 14.8055 14.0487 1.008 0.07222
450 24 1 35.94 12.7657 14.8902 1.008 0.09202
451 24 1 36.417 12.7471 16.5749 1.008 0.09202
452 24 1 33.538 12.719 15.5543 1.008 0.10167
453 24 1 33.9825 12.7431 17.2674 1.008 0.10167
454 24 1 33.4311 10.5197 16.0001 1.008 0.08773
455 24 1 35.0806 10.6565 15.3944 1.008 0.08773
456 24 1 34.792 10.5429 17.1467 1.008 0.08773
457 25 4 19.7452 17.2768 28.0999 15.999 -0.35515
458 25 2 19.8301 16.4549 29.2376 12.011 0.03297
459 25 2 19.8268 18.6493 28.399 12.011 0.01762
460 25 2 18.6996 19.118 29.3183 12.011 -0.23743
461 25 2 18.8211 20.6006 29.5746 12.011 -0.24423
462 25 3 19.7703 15.0298 28.7704 12.011 -0.1837
463 25 3 18.8109 14.2204 29.1754 12.011 -0.23415
464 25 1 18.0565 14.5957 29.8564 1.008 0.12909
465 25 1 18.7499 13.1877 28.859 1.008 0.12909
466 25 1 20.5489 14.6983 28.0916 1.008 0.15086
467 25 1 18.9616 16.6149 29.8761 1.008 0.07222
468 25 1 20.7316 16.5935 29.8321 1.008 0.07222
469 25 1 20.7942 18.8764 28.8473 1.008 0.09202
470 25 1 19.7788 19.179 27.4475 1.008 0.09202
471 25 1 18.7783 18.6387 30.2912 1.008 0.10167
472 25 1 17.7159 18.9007 28.9006 1.008 0.10167
473 25 1 18.37 20.8343 30.536 1.008 0.08773
474 25 1 19.8725 20.8766 29.6161 1.008 0.08773
475 25 1 18.3238 21.1662 28.7887 1.008 0.08773
476 26 4 4.67663 48.5558 39.5173 15.999 -0.35515
477 26 2 4.99404 48.7759 38.175 12.011 0.03297
478 26 2 5.00356 49.5835 40.3923 12.011 0.01762
479 26 2 6.4947 49.8313 40.3417 12.011 -0.23743
480 26 2 6.86761 50.8425 41.3151 12.011 -0.24423
481 26 3 4.55547 47.5746 37.384 12.011 -0.1837
482 26 3 5.42365 46.878 36.6758 12.011 -0.23415
483 26 1 6.46544 47.1773 36.6759 1.008 0.12909
484 26 1 5.1394 46.0073 36.0991 1.008 0.12909
485 26 1 3.50717 47.2943 37.431 1.008 0.15086
486 26 1 6.07299 48.8566 38.0593 1.008 0.07222
487 26 1 4.51277 49.6583 37.7698 1.008 0.07222
488 26 1 4.42258 50.4661 40.125 1.008 0.09202
489 26 1 4.70347 49.2761 41.3957 1.008 0.09202
490 26 1 6.7984 50.2672 39.3902 1.008 0.10167
491 26 1 7.12325 49.002 40.6158 1.008 0.10167
492 26 1 7.73817 51.289 40.8514 1.008 0.08773
493 26 1 6.00676 51.4423 41.224 1.008 0.08773
494 26 1 6.98077 50.6 42.371 1.008 0.08773
495 27 4 36.3879 4.26154 41.4016 15.999 -0.35515
496 27 2 36.8122 4.37534 42.734 12.011 0.03297
497 27 2 35.4206 3.25656 41.2172 12.011 0.01762
498 27 2 35.93 1.86778 41.6024 12.011 -0.23743
499 27 2 34.8641 0.831164 41.343 12.011 -0.24423
500 27 3 37.7884 5.50935 42.8104 12.011 -0.1837
501 27 3 39.0208 5.30259 43.2298 12.011 -0.23415
502 27 1 39.3234 4.30462 43.527 1.008 0.12909
503 27 1 39.7475 6.09844 43.2843 1.008 0.12909
504 27 1 37.4418 6.49028 42.5003 1.008 0.15086
505 27 1 37.3286 3.47338 43.0537 1.008 0.07222
506 27 1 36.0135 4.55821 43.4335 1.008 0.07222
507 27 1 34.517 3.49227 41.7791 1.008 0.09202
508 27 1 35.1541 3.27945 40.1635 1.008 0.09202
509 27 1 36.1332 1.82457 42.6699 1.008 0.10167
510 27 1 36.8377 1.60119 41.0608 1.008 0.10167
511 27 1 35.0106 51.9775 42.0178 1.008 0.08773
512 27 1 33.8851 1.26124 41.5401 1.008 0.08773
513 27 1 34.9149 0.483782 40.3152 1.008 0.08773
514 28 4 21.1898 4.30399 10.0963 15.999 -0.35515
515 28 2 20.6793 5.15204 11.0954 12.011 0.03297
516 28 2 20.5235 3.06947 10.0299 12.011 0.01762
517 28 2 20.6226 2.30414 11.3454 12.011 -0.23743
518 28 2 19.9134 1.00478 11.2206 12.011 -0.24423
519 28 3 21.4498 6.43954 11.0256 12.011 -0.1837
520 28 3 22.1421 6.87079 12.0633 12.011 -0.23415
521 28 1 22.1508 6.28329 12.9751 1.008 0.12909
522 28 1 22.7041 7.79507 12.0459 1.008 0.12909
523 28 1 21.4109 6.98848 10.0885 1.008 0.15086
524 28 1 20.8624 4.72398 12.0815 1.008 0.07222
525 28 1 19.6163 5.37076 11.0035 1.008 0.07222
526 28 1 19.4758 3.21813 9.76917 1.008 0.09202
527 28 1 20.9823 2.50508 9.21552 1.008 0.09202
528 28 1 20.1097 2.80589 12.1525 1.008 0.10167
529 28 1 21.6564 2.10099 11.6301 1.008 0.10167
530 28 1 19.5799 0.61443 12.1816 1.008 0.08773
531 28 1 19.0586 1.06397 10.5424 1.008 0.08773
532 28 1 20.7199 0.401845 10.8379 1.008 0.08773
533 29 4 42.0081 34.4676 34.4166 15.999 -0.35515
534 29 2 43.2639 34.8347 34.9143 12.011 0.03297
535 29 2 40.9478 35.1612 35.0277 12.011 0.01762
536 29 2 40.8688 34.9291 36.536 12.011 -0.23743
537 29 2 39.6926 35.6699 37.1192 12.011 -0.24423
538 29 3 44.3072 34.0637 34.1661 12.011 -0.1837
539 29 3 45.147 33.2675 34.7969 12.011 -0.23415
540 29 1 45.0577 33.1534 35.8673 1.008 0.12909
541 29 1 45.9042 32.6926 34.2849 1.008 0.12909
542 29 1 44.3321 34.1849 33.0902 1.008 0.15086
543 29 1 43.3502 34.5526 35.963 1.008 0.07222
544 29 1 43.4788 35.8958 34.8142 1.008 0.07222
545 29 1 41.0268 36.2274 34.8189 1.008 0.09202
546 29 1 40.0399 34.8048 34.5482 1.008 0.09202
547 29 1 41.7485 35.3381 37.0192 1.008 0.10167
548 29 1 40.7892 33.8748 36.7927 1.008 0.10167
549 29 1 39.897 35.9052 38.1612 1.008 0.08773
550 29 1 39.5497 36.6009 36.5778 1.008 0.08773
551 29 1 38.7925 35.0658 37.0442 1.008 0.08773
552 30 4 25.2461 30.3455 46.1387 15.999 -0.35515
553 30 2 24.893 29.9698 44.8315 12.011 0.03297
554 30 2 25.2539 29.2687 47.0437 12.011 0.01762
555 30 2 23.8854 28.598 47.1711 12.011 -0.23743
556 30 2 23.9528 27.4747 48.1758 12.011 -0.24423
557 30 3 24.9631 31.1999 43.9751 12.011 -0.1837
558 30 3 23.8983 31.6456 43.3346 12.011 -0.23415
559 30 1 22.9606 31.1148 43.4322 1.008 0.12909
560 30 1 23.9228 32.5257 42.706 1.008 0.12909
561 30 1 25.9198 31.7055 43.911 1.008 0.15086
562 30 1 23.8592 29.6284 44.8122 1.008 0.07222
563 30 1 25.5261 29.1988 44.3952 1.008 0.07222
564 30 1 26.0026 28.5361 46.7424 1.008 0.09202
565 30 1 25.567 29.6733 48.0067 1.008 0.09202
566 30 1 23.5989 28.1389 46.2285 1.008 0.10167
567 30 1 23.1102 29.3051 47.4677 1.008 0.10167
568 30 1 23.2017 26.7313 47.9267 1.008 0.08773
569 30 1 24.9262 26.9945 48.1206 1.008 0.08773
570 30 1 23.7842 27.8521 49.1828 1.008 0.08773
571 31 4 4.74918 38.2681 12.0232 15.999 -0.35515
572 31 2 4.316 38.0057 13.3072 12.011 0.03297
573 31 2 6.1232 38.4465 11.8102 12.011 0.01762
574 31 2 6.60388 39.6643 12.5681 12.011 -0.23743
575 31 2 8.07878 39.844 12.3473 12.011 -0.24423
576 31 3 2.83469 37.7612 13.2616 12.011 -0.1837
577 31 3 2.01238 38.5545 13.9214 12.011 -0.23415
578 31 1 2.42331 39.3854 14.4817 1.008 0.12909
579 31 1 0.943555 38.4031 13.9347 1.008 0.12909
580 31 1 2.47378 36.9216 12.673 1.008 0.15086
581 31 1 4.49034 38.9166 13.8673 1.008 0.07222
582 31 1 4.81634 37.1578 13.757 1.008 0.07222
583 31 1 6.65213 37.5478 12.1122 1.008 0.09202
584 31 1 6.29365 38.5674 10.7342 1.008 0.09202
585 31 1 6.46418 39.506 13.6317 1.008 0.10167
586 31 1 6.06796 40.5641 12.267 1.008 0.10167
587 31 1 8.50175 40.3534 13.208 1.008 0.08773
588 31 1 8.5514 38.8692 12.2593 1.008 0.08773
589 31 1 8.26012 40.4231 11.4449 1.008 0.08773
590 32 4 41.4025 46.149 5.10721 15.999 -0.35515
591 32 2 40.7226 45.4109 6.09075 12.011 0.03297
592 32 2 41.8432 47.4068 5.55706 12.011 0.01762
593 32 2 40.6923 48.3041 6.01548 12.011 -0.23743
594 32 2 41.224 49.6464 6.45662 12.011 -0.24423
595 32 3 40.3544 44.0878 5.48742 12.011 -0.1837
596 32 3 39.0924 43.7165 5.39357 12.011 -0.23415
597 32 1 38.3187 44.3766 5.77018 1.008 0.12909
598 32 1 38.7921 42.7641 4.97812 1.008 0.12909
599 32 1 41.1675 43.461 5.13253 1.008 0.15086
600 32 1 39.7943 45.9131 6.3612 1.008 0.07222
601 32 1 41.296 45.2264 6.99307 1.008 0.07222
602 32 1 42.5664 47.2802 6.36119 1.008 0.09202
603 32 1 42.3733 47.869 4.72416 1.008 0.09202
604 32 1 40.1985 47.8784 6.88563 1.008 0.10167
605 32 1 39.9509 48.4479 5.22862 1.008 0.10167
606 32 1 40.5439 50.0783 7.18718 1.008 0.08773
607 32 1 42.194 49.514 6.93018 1.008 0.08773
608 32 1 41.3201 50.3161 5.6039 1.008 0.08773
609 33 4 44.131 1.91256 30.1885 15.999 -0.35515
610 33 2 44.6778 1.64792 28.9246 12.011 0.03297
611 33 2 42.7919 2.34032 30.1365 12.011 0.01762
612 33 2 42.6153 3.63726 29.3569 12.011 -0.23743
613 33 2 41.17 4.05958 29.3686 12.011 -0.24423
614 33 3 46.0834 1.16745 29.131 12.011 -0.1837
615 33 3 47.1073 1.82076 28.6153 12.011 -0.23415
616 33 1 46.9244 2.71812 28.0353 1.008 0.12909
617 33 1 48.1314 1.49543 28.7439 1.008 0.12909
618 33 1 46.2202 0.265127 29.7141 1.008 0.15086
619 33 1 44.7392 2.57211 28.3547 1.008 0.07222
620 33 1 44.132 0.90881 28.3421 1.008 0.07222
621 33 1 42.165 1.5536 29.7191 1.008 0.09202
622 33 1 42.4693 2.49628 31.1611 1.008 0.09202
623 33 1 42.8718 3.48123 28.3136 1.008 0.10167
624 33 1 43.2317 4.44142 29.7589 1.008 0.10167
625 33 1 40.9713 4.6463 28.477 1.008 0.08773
626 33 1 40.5333 3.17828 29.3454 1.008 0.08773
627 33 1 40.9529 4.65039 30.2552 1.008 0.08773
628 34 4 47.9471 11.2037 32.3289 15.999 -0.35515
629 34 2 47.2906 12.2576 31.6697 12.011 0.03297
630 34 2 47.8432 11.2334 33.7276 12.011 0.01762
631 34 2 48.4864 12.4859 34.3038 12.011 -0.23743
632 34 2 48.3744 12.4709 35.8063 12.011 -0.24423
633 34 3 47.3905 12.0613 30.1849 12.011 -0.1837
634 34 3 48.0286 12.9328 29.4278 12.011 -0.23415
635 34 1 48.4733 13.8045 29.8922 1.008 0.12909
636 34 1 48.184 12.7927 28.3668 1.008 0.12909
637 34 1 47.0129 11.1356 29.77 1.008 0.15086
638 34 1 47.8132 13.1806 31.9075 1.008 0.07222
639 34 1 46.2385 12.3559 31.9109 1.008 0.07222
640 34 1 46.7961 11.1723 34.0238 1.008 0.09202
641 34 1 48.3368 10.3332 34.1006 1.008 0.09202
642 34 1 47.9521 13.3709 33.9681 1.008 0.10167
643 34 1 49.5329 12.5737 34.0124 1.008 0.10167
644 34 1 48.3752 13.4948 36.1711 1.008 0.08773
645 34 1 47.4339 12.0073 36.0961 1.008 0.08773
646 34 1 49.2057 11.9223 36.2441 1.008 0.08773
647 35 4 38.9779 16.3337 24.1001 15.999 -0.35515
648 35 2 39.7289 17.0212 25.0698 12.011 0.03297
649 35 2 37.6215 16.7052 24.0795 12.011 0.01762
650 35 2 36.9132 16.4228 25.4037 12.011 -0.23743
651 35 2 35.4585 16.812 25.3134 12.011 -0.24423
652 35 3 41.151 16.5513 24.9442 12.011 -0.1837
653 35 3 41.7615 15.9566 25.9539 12.011 -0.23415
654 35 1 41.2287 15.8283 26.8906 1.008 0.12909
655 35 1 42.7939 15.6365 25.9053 1.008 0.12909
656 35 1 41.648 16.725 23.9935 1.008 0.15086
657 35 1 39.3879 16.7473 26.0685 1.008 0.07222
658 35 1 39.7008 18.1068 24.9805 1.008 0.07222
659 35 1 37.5295 17.7606 23.8229 1.008 0.09202
660 35 1 37.1554 16.1339 23.2773 1.008 0.09202
661 35 1 37.3434 17.0384 26.1843 1.008 0.10167
662 35 1 36.9969 15.3771 25.6983 1.008 0.10167
663 35 1 35.0917 17.0656 26.3041 1.008 0.08773
664 35 1 35.3605 17.6894 24.6781 1.008 0.08773
665 35 1 34.8729 15.9918 24.9053 1.008 0.08773
666 36 4 34.6077 24.6583 5.32471 15.999 -0.35515
667 36 2 35.122 23.4459 5.81673 12.011 0.03297
668 36 2 34.5217 24.6985 3.92242 12.011 0.01762
669 36 2 35.8817 24.5344 3.24381 12.011 -0.23743
670 36 2 35.73 24.6125 1.74504 12.011 -0.24423
671 36 3 35.1191 23.5289 7.31591 12.011 -0.1837
672 36 3 36.2418 23.4183 8.00235 12.011 -0.23415
673 36 1 37.1752 23.2663 7.47197 1.008 0.12909
674 36 1 36.2707 23.471 9.08221 1.008 0.12909
675 36 1 34.1598 23.6874 7.80134 1.008 0.15086
676 36 1 36.1602 23.3289 5.50591 1.008 0.07222
677 36 1 34.5639 22.5619 5.51316 1.008 0.07222
678 36 1 33.8307 23.9329 3.57071 1.008 0.09202
679 36 1 34.0892 25.6652 3.66805 1.008 0.09202
680 36 1 36.2927 23.5511 3.45006 1.008 0.10167
681 36 1 36.6 25.2823 3.57811 1.008 0.10167
682 36 1 36.5278 24.0461 1.27174 1.008 0.08773
683 36 1 34.782 24.1655 1.45404 1.008 0.08773
684 36 1 35.7703 25.6484 1.41386 1.008 0.08773
685 37 4 17.2368 49.2316 15.7383 15.999 -0.35515
686 37 2 18.1571 48.3026 16.254 12.011 0.03297
687 37 2 16.2444 49.6017 16.6652 12.011 0.01762
688 37 2 15.4057 48.416 17.1331 12.011 -0.23743
689 37 2 14.3429 48.8834 18.0972 12.011 -0.24423
690 37 3 19.1737 48.0363 15.1812 12.011 -0.1837
691 37 3 19.3519 46.8191 14.7033 12.011 -0.23415
692 37 1 18.7563 46.0052 15.0944 1.008 0.12909
693 37 1 20.0744 46.5906 13.9316 1.008 0.12909
694 37 1 19.7449 48.8844 14.817 1.008 0.15086
695 37 1 17.6556 47.3578 16.4631 1.008 0.07222
696 37 1 18.6742 48.6306 17.1539 1.008 0.07222
697 37 1 16.6987 50.0942 17.5246 1.008 0.09202
698 37 1 15.6088 50.3354 16.1688 1.008 0.09202
699 37 1 16.0161 47.705 17.6857 1.008 0.10167
700 37 1 14.9386 47.9001 16.2957 1.008 0.10167
701 37 1 14.0919 48.0684 18.7707 1.008 0.08773
702 37 1 14.7294 49.6962 18.7036 1.008 0.08773
703 37 1 13.4532 49.2059 17.5595 1.008 0.08773
704 38 4 21.1383 14.1946 37.2438 15.999 -0.35515
705 38 2 20.9016 13.6829 38.5323 12.011 0.03297
706 38 2 22.0683 15.2512 37.2289 12.011 0.01762
707 38 2 21.6079 16.4502 38.0602 12.011 -0.23743
708 38 2 22.6272 17.5607 37.9785 12.011 -0.24423
709 38 3 19.9326 12.5438 38.392 12.011 -0.1837
710 38 3 18.761 12.5723 38.9995 12.011 -0.23415
711 38 1 18.5012 13.4328 39.6065 1.008 0.12909
712 38 1 18.0442 11.7662 38.9224 1.008 0.12909
713 38 1 20.2423 11.7068 37.7721 1.008 0.15086
714 38 1 20.4173 14.4401 39.1491 1.008 0.07222
715 38 1 21.7913 13.3275 39.0506 1.008 0.07222
716 38 1 23.038 14.9003 37.5838 1.008 0.09202
717 38 1 22.1932 15.5432 36.186 1.008 0.09202
718 38 1 21.5449 16.1803 39.1121 1.008 0.10167
719 38 1 20.6366 16.8233 37.7346 1.008 0.10167
720 38 1 22.5694 18.1669 38.88 1.008 0.08773
721 38 1 23.6258 17.1325 37.9227 1.008 0.08773
722 38 1 22.445 18.1832 37.1047 1.008 0.08773
723 39 4 47.4356 12.6445 15.3037 15.999 -0.35515
724 39 2 48.3971 13.6685 15.3757 12.011 0.03297
725 39 2 47.8754 11.534 14.5581 12.011 0.01762
726 39 2 48.2017 11.8875 13.1066 12.011 -0.23743
727 39 2 48.6343 10.6547 12.3527 12.011 -0.24423
728 39 3 47.8503 14.7701 16.2336 12.011 -0.1837
729 39 3 47.7056 15.9905 15.7574 12.011 -0.23415
730 39 1 47.9353 16.1906 14.7219 1.008 0.12909
731 39 1 47.2496 16.7897 16.3329 1.008 0.12909
732 39 1 47.5521 14.5108 17.2458 1.008 0.15086
733 39 1 48.5626 14.0936 14.3864 1.008 0.07222
734 39 1 49.3543 13.3679 15.7949 1.008 0.07222
735 39 1 48.7465 11.0849 15.0362 1.008 0.09202
736 39 1 47.072 10.7987 14.5926 1.008 0.09202
737 39 1 49.0439 12.5736 13.0618 1.008 0.10167
738 39 1 47.3515 12.3389 12.5978 1.008 0.10167
739 39 1 49.289 10.9447 11.5351 1.008 0.08773
740 39 1 49.192 10.0012 13.016 1.008 0.08773
741 39 1 47.7732 10.1232 11.9579 1.008 0.08773
742 40 4 29.5689 36.1566 43.3422 15.999 -0.35515
743 40 2 30.0477 37.4643 43.4879 12.011 0.03297
744 40 2 28.8625 35.6821 44.4614 12.011 0.01762
745 40 2 29.6754 35.6815 45.7506 12.011 -0.23743
746 40 2 28.8542 35.1521 46.8967 12.011 -0.24423
747 40 3 30.7747 37.8277 42.2265 12.011 -0.1837
748 40 3 32.0445 38.1849 42.2552 12.011 -0.23415
749 40 1 32.564 38.2129 43.2055 1.008 0.12909
750 40 1 32.5915 38.4644 41.3662 1.008 0.12909
751 40 1 30.2062 37.782 41.302 1.008 0.15086
752 40 1 30.7682 37.5145 44.2976 1.008 0.07222
753 40 1 29.2685 38.1935 43.6779 1.008 0.07222
754 40 1 27.9607 36.2735 44.5848 1.008 0.09202
755 40 1 28.5483 34.6701 44.2316 1.008 0.09202
756 40 1 29.913 36.7025 46.007 1.008 0.10167
757 40 1 30.5953 35.1055 45.6691 1.008 0.10167
758 40 1 29.2138 35.5866 47.826 1.008 0.08773
759 40 1 27.8182 35.4493 46.7574 1.008 0.08773
760 40 1 28.9273 34.0675 46.939 1.008 0.08773
761 41 4 16.9227 36.2834 28.1577 15.999 -0.35515
762 41 2 17.0139 37.1718 29.2436 12.011 0.03297
763 41 2 15.8357 36.5573 27.3068 12.011 0.01762
764 41 2 14.4882 36.4592 28.0241 12.011 -0.23743
765 41 2 13.3651 36.7282 27.0539 12.011 -0.24423
766 41 3 18.2329 36.7901 30.0327 12.011 -0.1837
767 41 3 18.1361 36.4278 31.2982 12.011 -0.23415
768 41 1 17.1624 36.4052 31.7613 1.008 0.12909
769 41 1 18.9905 36.1548 31.9004 1.008 0.12909
770 41 1 19.1878 36.823 29.5182 1.008 0.15086
771 41 1 16.1534 37.0453 29.9005 1.008 0.07222
772 41 1 17.0896 38.2222 28.9653 1.008 0.07222
773 41 1 15.9509 37.5459 26.8611 1.008 0.09202
774 41 1 15.8835 35.8299 26.4957 1.008 0.09202
775 41 1 14.4098 37.2257 28.7913 1.008 0.10167
776 41 1 14.3412 35.4824 28.4858 1.008 0.10167
777 41 1 12.5103 37.1209 27.5997 1.008 0.08773
778 41 1 13.6867 37.4731 26.3298 1.008 0.08773
779 41 1 13.0784 35.8161 26.5353 1.008 0.08773
780 42 4 45.9081 36.1752 6.84377 15.999 -0.35515
781 42 2 46.724 35.9942 7.96338 12.011 0.03297
782 42 2 45.677 37.5288 6.54534 12.011 0.01762
783 42 2 44.9759 38.2715 7.68457 12.011 -0.23743
784 42 2 44.714 39.7028 7.28611 12.011 -0.24423
785 42 3 46.8923 34.5071 8.12983 12.011 -0.1837
786 42 3 46.5481 33.9101 9.25602 12.011 -0.23415
787 42 1 46.1131 34.4996 10.057 1.008 0.12909
788 42 1 46.718 32.8557 9.43419 1.008 0.12909
789 42 1 47.3996 33.9777 7.32656 1.008 0.15086
790 42 1 46.2401 36.3639 8.86466 1.008 0.07222
791 42 1 47.6872 36.4948 7.8763 1.008 0.07222
792 42 1 46.6149 38.0247 6.29288 1.008 0.09202
793 42 1 45.0555 37.5376 5.65035 1.008 0.09202
794 42 1 45.6231 38.3193 8.55747 1.008 0.10167
795 42 1 44.0366 37.7951 7.96563 1.008 0.10167
796 42 1 44.6805 40.3225 8.1786 1.008 0.08773
797 42 1 45.5289 40.0527 6.65857 1.008 0.08773
798 42 1 43.7746 39.7826 6.74325 1.008 0.08773
799 43 4 23.776 45.7446 20.1787 15.999 -0.35515
800 43 2 23.599 46.4937 19.0024 12.011 0.03297
801 43 2 24.8411 46.204 20.9755 12.011 0.01762
802 43 2 26.1862 46.1457 20.251 12.011 -0.23743
803 43 2 27.2905 46.6186 21.164 12.011 -0.24423
804 43 3 22.4136 45.921 18.2805 12.011 -0.1837
805 43 3 22.5341 45.4334 17.0598 12.011 -0.23415
806 43 1 23.503 45.4516 16.5759 1.008 0.12909
807 43 1 21.6997 45.0182 16.5107 1.008 0.12909
808 43 1 21.4628 45.9258 18.8049 1.008 0.15086
809 43 1 24.462 46.3693 18.3484 1.008 0.07222
810 43 1 23.4338 47.5578 19.1645 1.008 0.07222
811 43 1 24.6432 47.2222 21.3105 1.008 0.09202
812 43 1 24.8641 45.5705 21.8628 1.008 0.09202
813 43 1 26.1911 46.8219 19.3997 1.008 0.10167
814 43 1 26.4159 45.1405 19.9025 1.008 0.10167
815 43 1 28.1026 47.0228 20.5644 1.008 0.08773
816 43 1 26.9141 47.4123 21.8049 1.008 0.08773
817 43 1 27.6596 45.7966 21.7747 1.008 0.08773
818 44 4 35.9438 14.7451 5.48792 15.999 -0.35515
819 44 2 37.1668 14.2407 5.96512 12.011 0.03297
820 44 2 35.2377 15.4913 6.4504 12.011 0.01762
821 44 2 34.8811 14.6673 7.68946 12.011 -0.23743
822 44 2 34.0997 15.5109 8.66761 12.011 -0.24423
823 44 3 37.824 13.5091 4.83043 12.011 -0.1837
824 44 3 38.1119 12.2239 4.93011 12.011 -0.23415
825 44 1 37.8674 11.6962 5.84526 1.008 0.12909
826 44 1 38.5873 11.6689 4.13251 1.008 0.12909
827 44 1 38.0434 14.0818 3.93369 1.008 0.15086
828 44 1 36.9858 13.5104 6.75424 1.008 0.07222
829 44 1 37.8537 14.998 6.34023 1.008 0.07222
830 44 1 35.8175 16.3682 6.73998 1.008 0.09202
831 44 1 34.3302 15.8501 5.96335 1.008 0.09202
832 44 1 35.7829 14.3599 8.21398 1.008 0.10167
833 44 1 34.3036 13.7778 7.43568 1.008 0.10167
834 44 1 34.2598 15.1318 9.67415 1.008 0.08773
835 44 1 34.4622 16.536 8.6302 1.008 0.08773
836 44 1 33.0383 15.4868 8.42913 1.008 0.08773
837 45 4 22.6173 24.2721 42.985 15.999 -0.35515
838 45 2 22.5332 24.4636 44.3655 12.011 0.03297
839 45 2 21.7472 25.083 42.2326 12.011 0.01762
840 45 2 20.2853 24.8101 42.5724 12.011 -0.23743
841 45 2 19.393 25.6702 41.7276 12.011 -0.24423
842 45 3 23.5557 23.5727 45.0073 12.011 -0.1837
843 45 3 23.1876 22.6388 45.8636 12.011 -0.23415
844 45 1 22.1344 22.5186 46.0965 1.008 0.12909
845 45 1 23.897 21.9846 46.3523 1.008 0.12909
846 45 1 24.5964 23.7324 44.7366 1.008 0.15086
847 45 1 21.5533 24.14 44.7097 1.008 0.07222
848 45 1 22.7095 25.4854 44.6838 1.008 0.07222
849 45 1 21.9934 26.1314 42.3829 1.008 0.09202
850 45 1 21.931 24.8795 41.1778 1.008 0.09202
851 45 1 20.0789 25.085 43.6022 1.008 0.10167
852 45 1 20.0145 23.768 42.424 1.008 0.10167
853 45 1 18.4682 25.8723 42.2483 1.008 0.08773
854 45 1 19.8815 26.6152 41.5646 1.008 0.08773
855 45 1 19.1842 25.2107 40.7674 1.008 0.08773
856 46 4 44.9787 20.7377 22.4791 15.999 -0.35515
857 46 2 46.3084 21.0428 22.1408 12.011 0.03297
858 46 2 44.349 21.7478 23.23 12.011 0.01762
859 46 2 45.0534 22.0167 24.5613 12.011 -0.23743
860 46 2 44.317 23.0858 25.3317 12.011 -0.24423
861 46 3 46.8362 19.9077 21.3121 12.011 -0.1837
862 46 3 47.8848 19.2103 21.7096 12.011 -0.23415
863 46 1 48.3654 19.4635 22.6472 1.008 0.12909
864 46 1 48.2845 18.3836 21.1367 1.008 0.12909
865 46 1 46.3127 19.6824 20.3865 1.008 0.15086
866 46 1 46.9185 21.0903 23.0427 1.008 0.07222
867 46 1 46.4319 21.9703 21.5843 1.008 0.07222
868 46 1 44.2932 22.6659 22.6443 1.008 0.09202
869 46 1 43.3253 21.4152 23.406 1.008 0.09202
870 46 1 46.0534 22.4083 24.3901 1.008 0.10167
871 46 1 45.1294 21.1162 25.1715 1.008 0.10167
872 46 1 45.0164 23.5985 25.9876 1.008 0.08773
873 46 1 43.9046 23.8136 24.6367 1.008 0.08773
874 46 1 43.5154 22.6451 25.921 1.008 0.08773
875 47 4 23.3385 12.221 14.6719 15.999 -0.35515
876 47 2 22.773 12.4222 15.9437 12.011 0.03297
877 47 2 23.8974 10.9399 14.511 12.011 0.01762
878 47 2 25.0253 10.6587 15.5053 12.011 -0.23743
879 47 2 25.602 9.28569 15.2599 12.011 -0.24423
880 47 3 22.1841 13.8024 15.9602 12.011 -0.1837
881 47 3 22.601 14.7068 16.8284 12.011 -0.23415
882 47 1 23.38 14.4448 17.5354 1.008 0.12909
883 47 1 22.1928 15.7086 16.871 1.008 0.12909
884 47 1 21.4089 14.019 15.2305 1.008 0.15086
885 47 1 23.5509 12.3985 16.707 1.008 0.07222
886 47 1 21.9978 11.7063 16.2132 1.008 0.07222
887 47 1 23.1201 10.1808 14.6028 1.008 0.09202
888 47 1 24.2761 10.8919 13.4904 1.008 0.09202
889 47 1 24.639 10.6429 16.5222 1.008 0.10167
890 47 1 25.8195 11.4036 15.4452 1.008 0.10167
891 47 1 26.0214 8.90436 16.1885 1.008 0.08773
892 47 1 24.8099 8.61097 14.943 1.008 0.08773
893 47 1 26.3775 9.32914 14.4979 1.008 0.08773
894 48 4 43.435 21.8042 6.91907 15.999 -0.35515
895 48 2 42.133 21.2741 6.96342 12.011 0.03297
896 48 2 44.0086 21.9762 8.1925 12.011 0.01762
897 48 2 43.2102 22.938 9.07388 12.011 -0.23743
898 48 2 43.892 23.1061 10.4102 12.011 -0.24423
899 48 3 41.6657 21.1007 5.54775 12.011 -0.1837
900 48 3 40.585 21.7205 5.1107 12.011 -0.23415
901 48 1 40.0365 22.363 5.78974 1.008 0.12909
902 48 1 40.2247 21.6239 4.09737 1.008 0.12909
903 48 1 42.2533 20.4479 4.91024 1.008 0.15086
904 48 1 41.4568 21.9793 7.44434 1.008 0.07222
905 48 1 42.049 20.3194 7.47273 1.008 0.07222
906 48 1 44.1127 21.0131 8.68949 1.008 0.09202
907 48 1 45.016 22.3598 8.03121 1.008 0.09202
908 48 1 42.2261 22.5274 9.2887 1.008 0.10167
909 48 1 43.0881 23.9138 8.60295 1.008 0.10167
910 48 1 43.1484 23.3656 11.1599 1.008 0.08773
911 48 1 44.3555 22.1659 10.7014 1.008 0.08773
912 48 1 44.6477 23.8876 10.3565 1.008 0.08773
913 49 4 29.9126 11.0411 18.2428 15.999 -0.35515
914 49 2 30.8492 12.0138 17.8519 12.011 0.03297
915 49 2 29.9323 9.89221 17.4299 12.011 0.01762
916 49 2 29.6068 10.2017 15.9676 12.011 -0.23743
917 49 2 29.6116 8.93007 15.1546 12.011 -0.24423
918 49 3 30.7481 13.1524 18.8249 12.011 -0.1837
919 49 3 30.4328 14.3677 18.4139 12.011 -0.23415
920 49 1 30.2449 14.5393 17.36 1.008 0.12909
921 49 1 30.3557 15.2101 19.0885 1.008 0.12909
922 49 1 30.941 12.9296 19.8707 1.008 0.15086
923 49 1 30.5879 12.4081 16.8698 1.008 0.07222
924 49 1 31.8794 11.6639 17.8258 1.008 0.07222
925 49 1 30.9035 9.40142 17.5008 1.008 0.09202
926 49 1 29.1926 9.20528 17.8426 1.008 0.09202
927 49 1 30.3759 10.8363 15.5342 1.008 0.10167
928 49 1 28.6415 10.6979 15.8615 1.008 0.10167
929 49 1 29.857 9.16636 14.1219 1.008 0.08773
930 49 1 30.3743 8.25712 15.5405 1.008 0.08773
931 49 1 28.6384 8.4455 15.1997 1.008 0.08773
932 50 4 36.2415 44.4969 49.019 15.999 -0.35515
933 50 2 35.4458 44.3985 50.1723 12.011 0.03297
934 50 2 36.2009 45.77 48.4224 12.011 0.01762
935 50 2 34.7944 46.1705 47.9825 12.011 -0.23743
936 50 2 34.8156 47.524 47.3193 12.011 -0.24423
937 50 3 35.6239 43.0189 50.7291 12.011 -0.1837
938 50 3 34.5863 42.2181 50.8797 12.011 -0.23415
939 50 1 33.6048 42.5477 50.559 1.008 0.12909
940 50 1 34.6843 41.2095 51.2586 1.008 0.12909
941 50 1 36.6276 42.7091 51.0003 1.008 0.15086
942 50 1 34.3935 44.5061 49.9095 1.008 0.07222
943 50 1 35.6887 45.1161 50.9532 1.008 0.07222
944 50 1 36.5986 46.515 49.1101 1.008 0.09202
945 50 1 36.8691 45.7333 47.5616 1.008 0.09202
946 50 1 34.1337 46.2634 48.8401 1.008 0.10167
947 50 1 34.3743 45.4442 47.2975 1.008 0.10167
948 50 1 33.8437 47.9963 47.4396 1.008 0.08773
949 50 1 35.5606 48.1478 47.8067 1.008 0.08773
950 50 1 35.0509 47.4291 46.261 1.008 0.08773
951 51 4 44.9196 25.6715 32.6811 15.999 -0.35515
952 51 2 45.6146 25.5678 31.465 12.011 0.03297
953 51 2 43.5241 25.5683 32.5363 12.011 0.01762
954 51 2 42.9421 26.6482 31.6316 12.011 -0.23743
955 51 2 41.452 26.5046 31.5561 12.011 -0.24423
956 51 3 47.0808 25.6534 31.7773 12.011 -0.1837
957 51 3 47.8297 26.6085 31.2567 12.011 -0.23415
958 51 1 47.3717 27.3397 30.6019 1.008 0.12909
959 51 1 48.8874 26.7 31.4612 1.008 0.12909
960 51 1 47.4898 24.9036 32.448 1.008 0.15086
961 51 1 45.3723 26.4152 30.8237 1.008 0.07222
962 51 1 45.4248 24.6469 30.9167 1.008 0.07222
963 51 1 43.2629 24.587 32.1433 1.008 0.09202
964 51 1 43.0967 25.6433 33.5368 1.008 0.09202
965 51 1 43.3149 26.5581 30.6177 1.008 0.10167
966 51 1 43.1801 27.644 31.9742 1.008 0.10167
967 51 1 41.1396 26.9153 30.611 1.008 0.08773
968 51 1 41.1784 25.4566 31.5646 1.008 0.08773
969 51 1 40.9597 27.0273 32.3713 1.008 0.08773
970 52 4 41.0122 8.34181 32.2098 15.999 -0.35515
971 52 2 41.5541 8.00719 30.966 12.011 0.03297
972 52 2 41.7565 7.87754 33.3046 12.011 0.01762
973 52 2 41.9236 6.36141 33.3221 12.011 -0.23743
974 52 2 42.7285 5.94441 34.5266 12.011 -0.24423
975 52 3 40.693 8.58488 29.8859 12.011 -0.1837
976 52 3 40.1034 7.80114 29.0115 12.011 -0.23415
977 52 1 40.2614 6.73037 29.0536 1.008 0.12909
978 52 1 39.4202 8.17617 28.2533 1.008 0.12909
979 52 1 40.496 9.65485 29.9205 1.008 0.15086
980 52 1 41.5503 6.92721 30.8372 1.008 0.07222
981 52 1 42.5483 8.38855 30.8181 1.008 0.07222
982 52 1 42.7235 8.37129 33.3092 1.008 0.09202
983 52 1 41.2318 8.19835 34.1973 1.008 0.09202
984 52 1 42.4913 6.03952 32.4554 1.008 0.10167
985 52 1 40.9667 5.83874 33.3331 1.008 0.10167
986 52 1 43.2432 5.01608 34.3032 1.008 0.08773
987 52 1 43.4757 6.70341 34.7451 1.008 0.08773
988 52 1 42.077 5.80214 35.3877 1.008 0.08773
989 53 4 3.70423 26.758 39.2772 15.999 -0.35515
990 53 2 4.49146 26.6966 40.4383 12.011 0.03297
991 53 2 3.57265 28.0606 38.7599 12.011 0.01762
992 53 2 2.91408 29.0248 39.745 12.011 -0.23743
993 53 2 2.77775 30.3916 39.12 12.011 -0.24423
994 53 3 4.5754 25.257 40.8527 12.011 -0.1837
995 53 3 4.13491 24.8655 42.0338 12.011 -0.23415
996 53 1 3.70786 25.5975 42.7092 1.008 0.12909
997 53 1 4.18427 23.8358 42.363 1.008 0.12909
998 53 1 5.00556 24.5587 40.1423 1.008 0.15086
999 53 1 4.00088 27.2351 41.2492 1.008 0.07222
1000 53 1 5.50028 27.0824 40.3148 1.008 0.07222
1001 53 1 4.5489 28.445 38.4654 1.008 0.09202
1002 53 1 2.97147 27.9762 37.8537 1.008 0.09202
1003 53 1 3.54215 29.1575 40.6224 1.008 0.10167
1004 53 1 1.93457 28.6712 40.0669 1.008 0.10167
1005 53 1 2.77388 31.1433 39.9057 1.008 0.08773
1006 53 1 3.63041 30.5807 38.4718 1.008 0.08773
1007 53 1 1.85578 30.4559 38.5451 1.008 0.08773
1008 54 4 32.0193 3.41565 26.898 15.999 -0.35515
1009 54 2 31.3519 4.64604 26.783 12.011 0.03297
1010 54 2 31.6739 2.49904 25.887 12.011 0.01762
1011 54 2 30.1814 2.16327 25.8834 12.011 -0.23743
1012 54 2 29.8761 1.1556 24.8024 12.011 -0.24423
1013 54 3 31.8352 5.52251 27.9007 12.011 -0.1837
1014 54 3 31.0123 6.02407 28.7938 12.011 -0.23415
1015 54 1 29.9642 5.77942 28.7184 1.008 0.12909
1016 54 1 31.3489 6.66258 29.5981 1.008 0.12909
1017 54 1 32.8915 5.72164 27.9617 1.008 0.15086
1018 54 1 30.2845 4.51323 26.9316 1.008 0.07222
1019 54 1 31.5028 5.15232 25.8319 1.008 0.07222
1020 54 1 31.9689 2.88944 24.9129 1.008 0.09202
1021 54 1 32.2629 1.59823 26.0652 1.008 0.09202
1022 54 1 29.5919 3.04537 25.6467 1.008 0.10167
1023 54 1 29.8516 1.77215 26.8442 1.008 0.10167
1024 54 1 28.8423 1.27386 24.4861 1.008 0.08773
1025 54 1 30.5174 1.34113 23.9439 1.008 0.08773
1026 54 1 30.0358 0.142877 25.168 1.008 0.08773
1027 55 4 23.8517 9.19437 40.6238 15.999 -0.35515
1028 55 2 24.2129 9.17308 41.9827 12.011 0.03297
1029 55 2 24.9389 8.97811 39.757 12.011 0.01762
1030 55 2 26.0311 10.0397 39.903 12.011 -0.23743
1031 55 2 27.1519 9.77087 38.9281 12.011 -0.24423
1032 55 3 22.9595 9.37453 42.7842 12.011 -0.1837
1033 55 3 22.8385 10.4025 43.6041 12.011 -0.23415
1034 55 1 23.658 11.1065 43.6974 1.008 0.12909
1035 55 1 21.9511 10.5733 44.1986 1.008 0.12909
1036 55 1 22.1657 8.64401 42.6556 1.008 0.15086
1037 55 1 24.873 10.0115 42.2065 1.008 0.07222
1038 55 1 24.6943 8.25246 42.3087 1.008 0.07222
1039 55 1 25.3575 7.98584 39.9275 1.008 0.09202
1040 55 1 24.536 8.98984 38.7438 1.008 0.09202
1041 55 1 26.4779 9.99058 40.8933 1.008 0.10167
1042 55 1 25.6444 11.0471 39.7443 1.008 0.10167
1043 55 1 28.0774 10.1803 39.3264 1.008 0.08773
1044 55 1 27.2771 8.69712 38.8098 1.008 0.08773
1045 55 1 26.9334 10.2252 37.9634 1.008 0.08773
1046 56 4 36.612 42.6148 31.4609 15.999 -0.35515
1047 56 2 35.7386 43.0156 32.4853 12.011 0.03297
1048 56 2 37.964 42.8914 31.7431 12.011 0.01762
1049 56 2 38.2309 44.3852 31.9451 12.011 -0.23743
1050 56 2 39.6973 44.6166 32.2148 12.011 -0.24423
1051 56 3 34.3497 42.6205 32.0797 12.011 -0.1837
1052 56 3 33.3974 43.5276 31.966 12.011 -0.23415
1053 56 1 33.6361 44.5732 32.1248 1.008 0.12909
1054 56 1 32.3946 43.2802 31.6459 1.008 0.12909
1055 56 1 34.1658 41.5681 31.8846 1.008 0.15086
1056 56 1 35.7489 44.1014 32.5805 1.008 0.07222
1057 56 1 35.951 42.5762 33.4578 1.008 0.07222
1058 56 1 38.2814 42.3334 32.6245 1.008 0.09202
1059 56 1 38.5449 42.515 30.8995 1.008 0.09202
1060 56 1 37.7041 44.7499 32.8236 1.008 0.10167
1061 56 1 37.922 44.9739 31.0809 1.008 0.10167
1062 56 1 39.8105 45.5198 32.8086 1.008 0.08773
1063 56 1 40.0973 43.7846 32.7891 1.008 0.08773
1064 56 1 40.2461 44.7123 31.2792 1.008 0.08773
1065 57 4 39.7471 7.88211 13.4292 15.999 -0.35515
1066 57 2 40.0555 7.9259 12.0584 12.011 0.03297
1067 57 2 40.3962 6.83604 14.1117 12.011 0.01762
1068 57 2 40.0244 5.45635 13.566 12.011 -0.23743
1069 57 2 40.7274 4.37886 14.3564 12.011 -0.24423
1070 57 3 39.3302 9.10271 11.4725 12.011 -0.1837
1071 57 3 38.4486 8.9425 10.5033 12.011 -0.23415
1072 57 1 38.2497 7.94434 10.1305 1.008 0.12909
1073 57 1 37.9138 9.77072 10.0586 1.008 0.12909
1074 57 1 39.56 10.0806 11.8821 1.008 0.15086
1075 57 1 39.6718 7.03509 11.561 1.008 0.07222
1076 57 1 41.1174 8.01833 11.8373 1.008 0.07222
1077 57 1 41.4764 6.97603 14.0661 1.008 0.09202
1078 57 1 40.1045 6.91642 15.1594 1.008 0.09202
1079 57 1 40.3698 5.34618 12.5408 1.008 0.10167
1080 57 1 38.9484 5.28213 13.594 1.008 0.10167
1081 57 1 40.8605 3.50215 13.7265 1.008 0.08773
1082 57 1 41.7106 4.73342 14.6579 1.008 0.08773
1083 57 1 40.147 4.11216 15.2379 1.008 0.08773
1084 58 4 6.62102 19.1675 20.0706 15.999 -0.35515
1085 58 2 5.77596 18.4745 19.1865 12.011 0.03297
1086 58 2 7.65886 18.3681 20.5864 12.011 0.01762
1087 58 2 7.14182 17.1642 21.3765 12.011 -0.23743
1088 58 2 8.29981 16.3671 21.9269 12.011 -0.24423
1089 58 3 4.74939 19.451 18.6895 12.011 -0.1837
1090 58 3 3.46242 19.2453 18.8971 12.011 -0.23415
1091 58 1 3.14698 18.3569 19.4334 1.008 0.12909
1092 58 1 2.69799 19.9274 18.5481 1.008 0.12909
1093 58 1 5.11513 20.3264 18.1606 1.008 0.15086
1094 58 1 5.23864 17.6906 19.7206 1.008 0.07222
1095 58 1 6.283 18.0307 18.3312 1.008 0.07222
1096 58 1 8.30581 18.0315 19.776 1.008 0.09202
1097 58 1 8.25767 19.0114 21.232 1.008 0.09202
1098 58 1 6.59644 16.4868 20.7235 1.008 0.10167
1099 58 1 6.48623 17.4649 22.1946 1.008 0.10167
1100 58 1 7.99217 15.3312 22.0511 1.008 0.08773
1101 58 1 9.12596 16.3948 21.22 1.008 0.08773
1102 58 1 8.61953 16.7727 22.8849 1.008 0.08773
1103 59 4 25.2454 38.8165 18.228 15.999 -0.35515
1104 59 2 25.3059 40.0612 18.8729 12.011 0.03297
1105 59 2 26.5131 38.2554 17.9846 12.011 0.01762
1106 59 2 27.4113 39.1409 17.1208 12.011 -0.23743
1107 59 2 28.7285 38.4626 16.876 12.011 -0.24423
1108 59 3 23.8933 40.5208 19.0927 12.011 -0.1837
1109 59 3 23.4639 41.6584 18.5794 12.011 -0.23415
1110 59 1 24.1438 42.2598 17.992 1.008 0.12909
1111 59 1 22.4566 42.0232 18.7221 1.008 0.12909
1112 59 1 23.2477 39.8786 19.6838 1.008 0.15086
1113 59 1 25.7884 40.7965 18.2299 1.008 0.07222
1114 59 1 25.8236 40.0393 19.8292 1.008 0.07222
1115 59 1 27.0133 38.0493 18.928 1.008 0.09202
1116 59 1 26.3388 37.296 17.4994 1.008 0.09202
1117 59 1 27.632 40.0775 17.6123 1.008 0.10167
1118 59 1 26.971 39.3984 16.1659 1.008 0.10167
1119 59 1 29.471 39.2194 16.6748 1.008 0.08773
1120 59 1 29.018 37.907 17.7531 1.008 0.08773
1121 59 1 28.6842 37.7879 16.0339 1.008 0.08773
1122 60 4 30.6898 33.1552 43.8315 15.999 -0.35515
1123 60 2 29.8585 32.9168 42.7235 12.011 0.03297
1124 60 2 31.7874 33.9885 43.5379 12.011 0.01762
1125 60 2 32.6887 33.4439 42.4623 12.011 -0.23743
1126 60 2 33.8813 34.3056 42.2161 12.011 -0.24423
1127 60 3 28.7099 32.0735 43.196 12.011 -0.1837
1128 60 3 28.4871 30.8822 42.6746 12.011 -0.23415
1129 60 1 29.1528 30.5118 41.9047 1.008 0.12909
1130 60 1 27.672 30.2486 42.996 1.008 0.12909
1131 60 1 28.0842 32.484 43.9825 1.008 0.15086
1132 60 1 30.3987 32.3371 41.979 1.008 0.07222
1133 60 1 29.4617 33.8133 42.2482 1.008 0.07222
1134 60 1 31.4691 34.9607 43.2067 1.008 0.09202
1135 60 1 32.3379 34.1254 44.4656 1.008 0.09202
1136 60 1 32.1753 33.2959 41.5209 1.008 0.10167
1137 60 1 33.0604 32.5257 42.817 1.008 0.10167
1138 60 1 34.2299 34.1341 41.2019 1.008 0.08773
1139 60 1 33.561 35.3319 42.3096 1.008 0.08773
1140 60 1 34.6717 34.0864 42.9329 1.008 0.08773
1141 61 4 23.5122 7.76711 1.53887 15.999 -0.35515
1142 61 2 23.1037 7.92289 2.87409 12.011 0.03297
1143 61 2 23.2403 6.48719 1.01888 12.011 0.01762
1144 61 2 23.9405 5.37099 1.79582 12.011 -0.23743
1145 61 2 23.6313 4.0309 1.17326 12.011 -0.24423
1146 61 3 23.4179 9.3335 3.27871 12.011 -0.1837
1147 61 3 24.2345 9.58103 4.28551 12.011 -0.23415
1148 61 1 24.6793 8.75033 4.8233 1.008 0.12909
1149 61 1 24.4787 10.5854 4.60358 1.008 0.12909
1150 61 1 22.9497 10.1285 2.70415 1.008 0.15086
1151 61 1 23.6821 7.26467 3.52237 1.008 0.07222
1152 61 1 22.0464 7.74151 3.04591 1.008 0.07222
1153 61 1 22.1663 6.31384 1.00036 1.008 0.09202
1154 61 1 23.574 6.49059 51.9673 1.008 0.09202
1155 61 1 23.564 5.31935 2.81436 1.008 0.10167
1156 61 1 25.0212 5.51502 1.82909 1.008 0.10167
1157 61 1 23.7025 3.25869 1.93522 1.008 0.08773
1158 61 1 22.6125 4.03486 0.791037 1.008 0.08773
1159 61 1 24.3283 3.81647 0.365499 1.008 0.08773
1160 62 4 32.2988 48.2561 15.9085 15.999 -0.35515
1161 62 2 32.3648 47.1513 15.0453 12.011 0.03297
1162 62 2 31.1875 49.0851 15.6685 12.011 0.01762
1163 62 2 31.1833 49.6747 14.2571 12.011 -0.23743
1164 62 2 29.9869 50.5756 14.0736 12.011 -0.24423
1165 62 3 33.563 46.3403 15.4363 12.011 -0.1837
1166 62 3 34.5398 46.1184 14.5768 12.011 -0.23415
1167 62 1 34.4753 46.5336 13.5779 1.008 0.12909
1168 62 1 35.4138 45.5355 14.8293 1.008 0.12909
1169 62 1 33.5898 45.9574 16.4509 1.008 0.15086
1170 62 1 32.5289 47.489 14.0223 1.008 0.07222
1171 62 1 31.4867 46.5102 15.0715 1.008 0.07222
1172 62 1 30.2659 48.5303 15.8452 1.008 0.09202
1173 62 1 31.2307 49.885 16.4084 1.008 0.09202
1174 62 1 31.0786 48.8876 13.5168 1.008 0.10167
1175 62 1 32.0962 50.2321 14.0448 1.008 0.10167
1176 62 1 29.7165 50.602 13.0204 1.008 0.08773
1177 62 1 29.1429 50.1755 14.6309 1.008 0.08773
1178 62 1 30.2121 51.5825 14.4194 1.008 0.08773
1179 63 4 44.9143 33.2112 17.9295 15.999 -0.35515
1180 63 2 46.0177 34.0785 18.0121 12.011 0.03297
1181 63 2 43.6997 33.8219 18.2944 12.011 0.01762
1182 63 2 43.7057 34.3379 19.7345 12.011 -0.23743
1183 63 2 42.3688 34.9524 20.0725 12.011 -0.24423
1184 63 3 47.2272 33.3113 17.5606 12.011 -0.1837
1185 63 3 48.2562 33.1349 18.3682 12.011 -0.23415
1186 63 1 48.2218 33.5508 19.3696 1.008 0.12909
1187 63 1 49.1428 32.5889 18.0737 1.008 0.12909
1188 63 1 47.2101 32.909 16.5513 1.008 0.15086
1189 63 1 46.1904 34.3659 19.0497 1.008 0.07222
1190 63 1 45.9286 34.9806 17.4093 1.008 0.07222
1191 63 1 43.4736 34.6372 17.6072 1.008 0.09202
1192 63 1 42.9212 33.0687 18.1695 1.008 0.09202
1193 63 1 44.4389 35.1325 19.8513 1.008 0.10167
1194 63 1 43.9338 33.5472 20.4501 1.008 0.10167
1195 63 1 42.5074 35.7033 20.8472 1.008 0.08773
1196 63 1 41.9627 35.4434 19.1914 1.008 0.08773
1197 63 1 41.6759 34.189 20.4211 1.008 0.08773
1198 64 4 28.9717 6.1251 2.96547 15.999 -0.35515
1199 64 2 28.5952 5.54009 4.18649 12.011 0.03297
1200 64 2 29.1801 7.51404 3.05461 12.011 0.01762
1201 64 2 27.9294 8.2742 3.50026 12.011 -0.23743
1202 64 2 28.2103 9.75653 3.54745 12.011 -0.24423
1203 64 3 28.4459 4.06519 3.95434 12.011 -0.1837
1204 64 3 27.293 3.4604 4.17154 12.011 -0.23415
1205 64 1 26.4483 4.04277 4.52401 1.008 0.12909
1206 64 1 27.1543 2.39897 4.01829 1.008 0.12909
1207 64 1 29.3223 3.52957 3.60169 1.008 0.15086
1208 64 1 27.6204 5.91656 4.4988 1.008 0.07222
1209 64 1 29.3068 5.69219 4.99516 1.008 0.07222
1210 64 1 30.0058 7.7211 3.73518 1.008 0.09202
1211 64 1 29.4872 7.84614 2.06245 1.008 0.09202
1212 64 1 27.65 7.99115 4.51101 1.008 0.10167
1213 64 1 27.0797 8.08481 2.84323 1.008 0.10167
1214 64 1 27.5509 10.2208 4.27656 1.008 0.08773
1215 64 1 29.238 9.92012 3.86295 1.008 0.08773
1216 64 1 28.0499 10.2034 2.56814 1.008 0.08773
1217 65 4 45.3975 8.30264 25.9546 15.999 -0.35515
1218 65 2 45.7591 7.43407 26.9915 12.011 0.03297
1219 65 2 45.5398 9.65151 26.3051 12.011 0.01762
1220 65 2 44.6711 10.0696 27.486 12.011 -0.23743
1221 65 2 44.8442 11.5364 27.7891 12.011 -0.24423
1222 65 3 45.6069 6.03387 26.4814 12.011 -0.1837
1223 65 3 44.7849 5.18905 27.073 12.011 -0.23415
1224 65 1 44.2209 5.52103 27.9356 1.008 0.12909
1225 65 1 44.6494 4.17463 26.7277 1.008 0.12909
1226 65 1 46.1886 5.756 25.6085 1.008 0.15086
1227 65 1 45.0805 7.55039 27.8343 1.008 0.07222
1228 65 1 46.7725 7.56623 27.3476 1.008 0.07222
1229 65 1 46.5836 9.88834 26.497 1.008 0.09202
1230 65 1 45.2491 10.1919 25.4202 1.008 0.09202
1231 65 1 44.9959 9.54538 28.3715 1.008 0.10167
1232 65 1 43.6193 9.85542 27.3173 1.008 0.10167
1233 65 1 44.6428 11.7242 28.8363 1.008 0.08773
1234 65 1 45.8637 11.8373 27.5652 1.008 0.08773
1235 65 1 44.1521 12.1338 27.2081 1.008 0.08773
1236 66 4 15.6796 29.1967 47.0508 15.999 -0.35515
1237 66 2 15.3977 30.5571 47.2183 12.011 0.03297
1238 66 2 15.4325 28.7754 45.7389 12.011 0.01762
1239 66 2 13.9807 28.9174 45.3097 12.011 -0.23743
1240 66 2 13.7916 28.3801 43.9219 12.011 -0.24423
1241 66 3 15.7334 30.9091 48.6355 12.011 -0.1837
1242 66 3 14.8095 31.3854 49.4493 12.011 -0.23415
1243 66 1 13.7985 31.5212 49.0818 1.008 0.12909
1244 66 1 15.0193 31.6527 50.476 1.008 0.12909
1245 66 1 16.7594 30.7515 48.9559 1.008 0.15086
1246 66 1 14.3317 30.7374 47.082 1.008 0.07222
1247 66 1 15.9479 31.2159 46.5528 1.008 0.07222
1248 66 1 16.1073 29.2522 45.0328 1.008 0.09202
1249 66 1 15.6848 27.7401 45.7374 1.008 0.09202
1250 66 1 13.7182 29.9648 45.2595 1.008 0.10167
1251 66 1 13.2943 28.4098 45.9801 1.008 0.10167
1252 66 1 12.9589 28.8975 43.4481 1.008 0.08773
1253 66 1 14.6818 28.5559 43.3226 1.008 0.08773
1254 66 1 13.5913 27.3134 43.9484 1.008 0.08773
1255 67 4 32.4862 43.3176 12.3832 15.999 -0.35515
1256 67 2 32.7485 42.9291 13.7088 12.011 0.03297
1257 67 2 31.8713 44.5785 12.2858 12.011 0.01762
1258 67 2 30.5241 44.6412 13.0016 12.011 -0.23743
1259 67 2 29.8995 46.0034 12.8358 12.011 -0.24423
1260 67 3 33.4282 41.5954 13.6429 12.011 -0.1837
1261 67 3 32.8821 40.5266 14.1953 12.011 -0.23415
1262 67 1 31.9545 40.6403 14.7486 1.008 0.12909
1263 67 1 33.3659 39.5618 14.2178 1.008 0.12909
1264 67 1 34.3767 41.5503 13.1239 1.008 0.15086
1265 67 1 31.8163 42.7864 14.2521 1.008 0.07222
1266 67 1 33.3733 43.6203 14.2698 1.008 0.07222
1267 67 1 32.5357 45.344 12.6809 1.008 0.09202
1268 67 1 31.7403 44.7808 11.2239 1.008 0.09202
1269 67 1 30.6571 44.5014 14.0712 1.008 0.10167
1270 67 1 29.8356 43.8805 12.6359 1.008 0.10167
1271 67 1 29.2446 46.2016 13.6812 1.008 0.08773
1272 67 1 30.6811 46.7542 12.823 1.008 0.08773
1273 67 1 29.3364 46.0588 11.9089 1.008 0.08773
1274 68 4 14.2929 8.40716 4.8667 15.999 -0.35515
1275 68 2 13.432 9.4852 5.13047 12.011 0.03297
1276 68 2 15.6582 8.72222 5.01355 12.011 0.01762
1277 68 2 16.1208 9.85921 4.11183 12.011 -0.23743
1278 68 2 17.5843 10.1411 4.28711 12.011 -0.24423
1279 68 3 12.0028 9.0262 4.99318 12.011 -0.1837
1280 68 3 11.1977 9.57918 4.11189 12.011 -0.23415
1281 68 1 11.5795 10.3697 3.46644 1.008 0.12909
1282 68 1 10.1938 9.2155 3.92126 1.008 0.12909
1283 68 1 11.711 8.16074 5.58811 1.008 0.15086
1284 68 1 13.5886 10.2653 4.38542 1.008 0.07222
1285 68 1 13.5503 9.90202 6.12329 1.008 0.07222
1286 68 1 15.8601 8.98601 6.04635 1.008 0.09202
1287 68 1 16.2121 7.81212 4.78851 1.008 0.09202
1288 68 1 15.6029 10.7738 4.33884 1.008 0.10167
1289 68 1 15.9258 9.64988 3.07959 1.008 0.10167
1290 68 1 17.791 11.1689 4.01825 1.008 0.08773
1291 68 1 17.8467 9.97575 5.32509 1.008 0.08773
1292 68 1 18.1768 9.50739 3.64378 1.008 0.08773
1293 69 4 7.27207 44.3853 29.1479 15.999 -0.35515
1294 69 2 6.76999 43.6867 28.0375 12.011 0.03297
1295 69 2 6.26144 44.8747 29.998 12.011 0.01762
1296 69 2 5.31781 45.8515 29.2929 12.011 -0.23743
1297 69 2 4.27949 46.3652 30.2607 12.011 -0.24423
1298 69 3 7.94824 43.1933 27.2501 12.011 -0.1837
1299 69 3 8.12517 43.5608 25.9974 12.011 -0.23415
1300 69 1 7.4085 44.231 25.5338 1.008 0.12909
1301 69 1 8.96349 43.2158 25.4075 1.008 0.12909
1302 69 1 8.64312 42.5295 27.7527 1.008 0.15086
1303 69 1 6.21343 44.3644 27.39 1.008 0.07222
1304 69 1 6.13282 42.841 28.2859 1.008 0.07222
1305 69 1 5.69614 44.0429 30.4148 1.008 0.09202
1306 69 1 6.76139 45.3702 30.8307 1.008 0.09202
1307 69 1 4.7655 45.3465 28.504 1.008 0.10167
1308 69 1 5.85564 46.6957 28.8612 1.008 0.10167
1309 69 1 3.38137 46.639 29.7118 1.008 0.08773
1310 69 1 4.02 45.5787 30.9632 1.008 0.08773
1311 69 1 4.65619 47.2263 30.8081 1.008 0.08773
1312 70 4 29.3991 36.0692 39.4091 15.999 -0.35515
1313 70 2 29.0673 36.4984 38.1136 12.011 0.03297
1314 70 2 30.4288 35.109 39.4313 12.011 0.01762
1315 70 2 30.0603 33.8349 38.667 12.011 -0.23743
1316 70 2 31.1868 32.8337 38.752 12.011 -0.24423
1317 70 3 27.9976 37.5439 38.2473 12.011 -0.1837
1318 70 3 26.8131 37.3756 37.6897 12.011 -0.23415
1319 70 1 26.6181 36.466 37.1344 1.008 0.12909
1320 70 1 26.0222 38.1089 37.7631 1.008 0.12909
1321 70 1 28.2421 38.4315 38.8241 1.008 0.15086
1322 70 1 28.6384 35.6708 37.549 1.008 0.07222
1323 70 1 29.8996 36.9144 37.5482 1.008 0.07222
1324 70 1 31.3463 35.5362 39.0253 1.008 0.09202
1325 70 1 30.6184 34.881 40.4805 1.008 0.09202
1326 70 1 29.934 34.0529 37.609 1.008 0.10167
1327 70 1 29.1427 33.3845 39.0471 1.008 0.10167
1328 70 1 31.1558 32.1874 37.8791 1.008 0.08773
1329 70 1 32.1371 33.3624 38.7534 1.008 0.08773
1330 70 1 31.0966 32.2349 39.6551 1.008 0.08773
1331 71 4 31.6349 36.9989 20.3829 15.999 -0.35515
1332 71 2 32.8512 36.3472 20.6363 12.011 0.03297
1333 71 2 30.7445 36.2253 19.6151 12.011 0.01762
1334 71 2 31.3096 35.8682 18.2383 12.011 -0.23743
1335 71 2 30.2999 35.0658 17.454 12.011 -0.24423
1336 71 3 33.6662 37.2609 21.4934 12.011 -0.1837
1337 71 3 34.8372 37.6874 21.0779 12.011 -0.23415
1338 71 1 35.2258 37.3917 20.1123 1.008 0.12909
1339 71 1 35.438 38.3219 21.6957 1.008 0.12909
1340 71 1 33.2627 37.5517 22.4577 1.008 0.15086
1341 71 1 33.4011 36.2054 19.7055 1.008 0.07222
1342 71 1 32.7587 35.3878 21.1405 1.008 0.07222
1343 71 1 30.4737 35.3198 20.1544 1.008 0.09202
1344 71 1 29.8306 36.8085 19.5132 1.008 0.09202
1345 71 1 32.1828 35.2293 18.3408 1.008 0.10167
1346 71 1 31.5875 36.7553 17.6701 1.008 0.10167
1347 71 1 30.8204 34.4351 16.7381 1.008 0.08773
1348 71 1 29.7397 34.4263 18.1327 1.008 0.08773
1349 71 1 29.6137 35.7249 16.9274 1.008 0.08773
1350 72 4 23.4402 25.3015 30.9314 15.999 -0.35515
1351 72 2 23.9811 25.5309 32.2057 12.011 0.03297
1352 72 2 23.0249 26.4798 30.2801 12.011 0.01762
1353 72 2 21.9368 27.2254 31.0514 12.011 -0.23743
1354 72 2 21.5142 28.4563 30.2886 12.011 -0.24423
1355 72 3 24.4133 24.2025 32.754 12.011 -0.1837
1356 72 3 23.9003 23.7353 33.8776 12.011 -0.23415
1357 72 1 23.1556 24.3214 34.4041 1.008 0.12909
1358 72 1 24.1941 22.7845 34.3016 1.008 0.12909
1359 72 1 25.1585 23.6505 32.1905 1.008 0.15086
1360 72 1 23.2093 25.9168 32.8711 1.008 0.07222
1361 72 1 24.8292 26.2129 32.2192 1.008 0.07222
1362 72 1 23.8809 27.1339 30.1124 1.008 0.09202
1363 72 1 22.6474 26.1859 29.2995 1.008 0.09202
1364 72 1 22.3214 27.5793 32.0047 1.008 0.10167
1365 72 1 21.0657 26.596 31.2364 1.008 0.10167
1366 72 1 21.1426 29.1908 30.9945 1.008 0.08773
1367 72 1 22.3747 28.8809 29.7778 1.008 0.08773
1368 72 1 20.7368 28.2125 29.5673 1.008 0.08773
1369 73 4 14.8164 44.3133 14.0593 15.999 -0.35515
1370 73 2 14.923 45.7117 14.0379 12.011 0.03297
1371 73 2 15.2446 43.743 15.2669 12.011 0.01762
1372 73 2 16.7047 44.0591 15.5783 12.011 -0.23743
1373 73 2 17.1183 43.3931 16.8673 12.011 -0.24423
1374 73 3 14.4151 46.145 12.7002 12.011 -0.1837
1375 73 3 15.1521 46.8735 11.8848 12.011 -0.23415
1376 73 1 16.1597 47.1205 12.1848 1.008 0.12909
1377 73 1 14.7779 47.2472 10.9416 1.008 0.12909
1378 73 1 13.389 45.8896 12.4627 1.008 0.15086
1379 73 1 15.9553 46.0316 14.1008 1.008 0.07222
1380 73 1 14.3906 46.2283 14.8295 1.008 0.07222
1381 73 1 14.6151 44.0753 16.0863 1.008 0.09202
1382 73 1 15.0971 42.669 15.1699 1.008 0.09202
1383 73 1 16.8296 45.1259 15.7394 1.008 0.10167
1384 73 1 17.3671 43.7418 14.7729 1.008 0.10167
1385 73 1 17.9275 43.9614 17.319 1.008 0.08773
1386 73 1 16.2772 43.3877 17.5568 1.008 0.08773
1387 73 1 17.4466 42.3728 16.6777 1.008 0.08773
1388 74 4 45.9661 36.7326 30.6458 15.999 -0.35515
1389 74 2 46.6771 36.0368 31.638 12.011 0.03297
1390 74 2 44.9814 37.59 31.169 12.011 0.01762
1391 74 2 43.9192 36.8521 31.9763 12.011 -0.23743
1392 74 2 42.8799 37.812 32.4919 12.011 -0.24423
1393 74 3 47.7099 35.1968 30.9445 12.011 -0.1837
1394 74 3 47.7126 33.8826 31.0733 12.011 -0.23415
1395 74 1 46.957 33.4082 31.6902 1.008 0.12909
1396 74 1 48.4474 33.2509 30.5915 1.008 0.12909
1397 74 1 48.444 35.7189 30.3378 1.008 0.15086
1398 74 1 46.0115 35.3532 32.1606 1.008 0.07222
1399 74 1 47.1697 36.6702 32.3735 1.008 0.07222
1400 74 1 45.4451 38.3617 31.7845 1.008 0.09202
1401 74 1 44.5197 38.0813 30.3147 1.008 0.09202
1402 74 1 44.3679 36.4134 32.8565 1.008 0.10167
1403 74 1 43.4303 36.0686 31.4004 1.008 0.10167
1404 74 1 42.4318 37.4208 33.398 1.008 0.08773
1405 74 1 43.35 38.7615 32.7316 1.008 0.08773
1406 74 1 42.1064 37.9616 31.7449 1.008 0.08773
1407 75 4 31.5375 35.0603 25.617 15.999 -0.35515
1408 75 2 32.8784 35.421 25.4294 12.011 0.03297
1409 75 2 30.6247 36.0887 25.3623 12.011 0.01762
1410 75 2 30.836 37.2676 26.303 12.011 -0.23743
1411 75 2 29.8181 38.3251 26.0005 12.011 -0.24423
1412 75 3 33.7272 34.2061 25.675 12.011 -0.1837
1413 75 3 34.6374 34.1923 26.631 12.011 -0.23415
1414 75 1 34.766 35.0738 27.2439 1.008 0.12909
1415 75 1 35.2584 33.3336 26.8396 1.008 0.12909
1416 75 1 33.558 33.3436 25.0392 1.008 0.15086
1417 75 1 33.1477 36.1587 26.1797 1.008 0.07222
1418 75 1 33.1074 35.8165 24.4436 1.008 0.07222
1419 75 1 30.6961 36.4089 24.3257 1.008 0.09202
1420 75 1 29.6314 35.6629 25.4877 1.008 0.09202
1421 75 1 31.8011 37.7303 26.1272 1.008 0.10167
1422 75 1 30.7732 36.9854 27.3535 1.008 0.10167
1423 75 1 30.2297 39.293 26.2803 1.008 0.08773
1424 75 1 29.5948 38.3606 24.942 1.008 0.08773
1425 75 1 28.8982 38.1296 26.5494 1.008 0.08773
1426 76 4 15.7071 16.5134 11.4595 15.999 -0.35515
1427 76 2 16.2767 16.4276 10.193 12.011 0.03297
1428 76 2 14.3127 16.3605 11.4115 12.011 0.01762
1429 76 2 13.6275 17.4895 10.6714 12.011 -0.23743
1430 76 2 12.1319 17.3298 10.7527 12.011 -0.24423
1431 76 3 17.7718 16.519 10.3509 12.011 -0.1837
1432 76 3 18.4556 17.4982 9.7928 12.011 -0.23415
1433 76 1 17.9276 18.2414 9.2046 1.008 0.12909
1434 76 1 19.5312 17.577 9.85083 1.008 0.12909
1435 76 1 18.2583 15.7316 10.9168 1.008 0.15086
1436 76 1 15.955 17.2899 9.61638 1.008 0.07222
1437 76 1 16.0223 15.5214 9.63756 1.008 0.07222
1438 76 1 14.0181 15.3804 11.0535 1.008 0.09202
1439 76 1 13.948 16.3607 12.4145 1.008 0.09202
1440 76 1 13.8919 17.4149 9.62592 1.008 0.10167
1441 76 1 13.9146 18.4685 11.0534 1.008 0.10167
1442 76 1 11.6854 17.777 9.86849 1.008 0.08773
1443 76 1 11.8793 16.2719 10.7662 1.008 0.08773
1444 76 1 11.74 17.8072 11.6475 1.008 0.08773
1445 77 4 16.5664 48.7079 20.8548 15.999 -0.35515
1446 77 2 16.2548 48.5283 22.2134 12.011 0.03297
1447 77 2 17.9403 48.9099 20.623 12.011 0.01762
1448 77 2 18.4816 50.1537 21.3315 12.011 -0.23743
1449 77 2 19.9483 50.3342 21.0197 12.011 -0.24423
1450 77 3 14.7756 48.2888 22.3018 12.011 -0.1837
1451 77 3 13.9991 49.0921 23.0045 12.011 -0.23415
1452 77 1 14.4407 49.9394 23.5172 1.008 0.12909
1453 77 1 12.9317 48.94 23.0932 1.008 0.12909
1454 77 1 14.3802 47.4315 21.7646 1.008 0.15086
1455 77 1 16.4629 49.4435 22.768 1.008 0.07222
1456 77 1 16.7783 47.7024 22.6934 1.008 0.07222
1457 77 1 18.5041 48.0295 20.9324 1.008 0.09202
1458 77 1 18.064 49.0086 19.5446 1.008 0.09202
1459 77 1 18.4182 50.0345 22.4106 1.008 0.10167
1460 77 1 17.9363 51.0541 21.0472 1.008 0.10167
1461 77 1 20.4235 50.871 21.8374 1.008 0.08773
1462 77 1 20.4207 49.3582 20.9314 1.008 0.08773
1463 77 1 20.0741 50.8888 20.0917 1.008 0.08773
1464 78 4 5.39245 19.59 2.6808 15.999 -0.35515
1465 78 2 6.42374 19.5334 3.63481 12.011 0.03297
1466 78 2 4.15662 19.9928 3.22074 12.011 0.01762
1467 78 2 3.64841 19.0475 4.30951 12.011 -0.23743
1468 78 2 2.3122 19.5187 4.82906 12.011 -0.24423
1469 78 3 7.67718 19.1271 2.91521 12.011 -0.1837
1470 78 3 8.32189 18.0244 3.24974 12.011 -0.23415
1471 78 1 7.9419 17.4126 4.06049 1.008 0.12909
1472 78 1 9.23334 17.7117 2.75895 1.008 0.12909
1473 78 1 8.02056 19.7771 2.11515 1.008 0.15086
1474 78 1 6.21174 18.7553 4.36801 1.008 0.07222
1475 78 1 6.60424 20.4695 4.16105 1.008 0.07222
1476 78 1 4.23687 21.0063 3.61422 1.008 0.09202
1477 78 1 3.44794 20.022 2.3932 1.008 0.09202
1478 78 1 4.31678 19.0619 5.16174 1.008 0.10167
1479 78 1 3.5623 18.0201 3.95542 1.008 0.10167
1480 78 1 2.18597 19.1799 5.85497 1.008 0.08773
1481 78 1 2.28531 20.6057 4.82372 1.008 0.08773
1482 78 1 1.50689 19.1263 4.21121 1.008 0.08773
1483 79 4 39.4397 8.67429 35.7411 15.999 -0.35515
1484 79 2 39.7034 10.0141 35.41 12.011 0.03297
1485 79 2 39.9823 8.28862 36.9804 12.011 0.01762
1486 79 2 41.5021 8.43869 37.0399 12.011 -0.23743
1487 79 2 42.0196 7.98614 38.3814 12.011 -0.24423
1488 79 3 39.046 10.3022 34.094 12.011 -0.1837
1489 79 3 39.7507 10.7038 33.0526 12.011 -0.23415
1490 79 1 40.826 10.7946 33.1432 1.008 0.12909
1491 79 1 39.3141 10.8825 32.0795 1.008 0.12909
1492 79 1 37.9732 10.1468 34.0346 1.008 0.15086
1493 79 1 40.7728 10.1615 35.27 1.008 0.07222
1494 79 1 39.3456 10.735 36.1371 1.008 0.07222
1495 79 1 39.5244 8.87035 37.7776 1.008 0.09202
1496 79 1 39.6992 7.24756 37.1378 1.008 0.09202
1497 79 1 41.7872 9.48023 36.9421 1.008 0.10167
1498 79 1 42.0005 7.87137 36.261 1.008 0.10167
1499 79 1 42.9495 8.50457 38.6023 1.008 0.08773
1500 79 1 41.2985 8.24449 39.1533 1.008 0.08773
1501 79 1 42.1898 6.91107 38.3851 1.008 0.08773
1502 80 4 14.5013 14.3013 3.87547 15.999 -0.35515
1503 80 2 14.8916 13.1588 3.17498 12.011 0.03297
1504 80 2 14.6318 14.212 5.26478 12.011 0.01762
1505 80 2 13.8406 13.0652 5.88057 12.011 -0.23743
1506 80 2 14.0472 13.0341 7.37273 12.011 -0.24423
1507 80 3 14.6752 13.4339 1.71657 12.011 -0.1837
1508 80 3 13.8485 12.6864 1.00337 12.011 -0.23415
1509 80 1 13.3792 11.8315 1.48018 1.008 0.12909
1510 80 1 13.7121 12.8102 51.9264 1.008 0.12909
1511 80 1 15.2096 14.2657 1.27707 1.008 0.15086
1512 80 1 14.2492 12.3223 3.44294 1.008 0.07222
1513 80 1 15.9303 12.8947 3.34488 1.008 0.07222
1514 80 1 15.6867 14.1129 5.49346 1.008 0.09202
1515 80 1 14.3 15.1624 5.67675 1.008 0.09202
1516 80 1 14.2187 12.1214 5.51311 1.008 0.10167
1517 80 1 12.777 13.1321 5.65308 1.008 0.10167
1518 80 1 13.9142 12.0195 7.7341 1.008 0.08773
1519 80 1 15.0578 13.352 7.60778 1.008 0.08773
1520 80 1 13.3385 13.6856 7.87105 1.008 0.08773
1521 81 4 48.1467 28.3384 48.3831 15.999 -0.35515
1522 81 2 47.5585 28.5855 47.1299 12.011 0.03297
1523 81 2 49.0342 27.246 48.3739 12.011 0.01762
1524 81 2 48.3487 25.9361 47.9834 12.011 -0.23743
1525 81 2 49.3371 24.7978 48.0245 12.011 -0.24423
1526 81 3 46.6817 29.7942 47.2778 12.011 -0.1837
1527 81 3 45.3867 29.7235 47.0375 12.011 -0.23415
1528 81 1 44.961 28.7805 46.7268 1.008 0.12909
1529 81 1 44.7258 30.5762 47.1257 1.008 0.12909
1530 81 1 47.1545 30.7201 47.5898 1.008 0.15086
1531 81 1 46.9121 27.7531 46.8516 1.008 0.07222
1532 81 1 48.267 28.7626 46.3222 1.008 0.07222
1533 81 1 49.866 27.4464 47.6982 1.008 0.09202
1534 81 1 49.4464 27.1699 49.3808 1.008 0.09202
1535 81 1 47.9891 25.9838 46.9584 1.008 0.10167
1536 81 1 47.51 25.7097 48.6382 1.008 0.10167
1537 81 1 49.0212 24.0226 47.3305 1.008 0.08773
1538 81 1 50.3094 25.162 47.7064 1.008 0.08773
1539 81 1 49.4061 24.3864 49.03 1.008 0.08773
1540 82 4 14.9129 27.3654 23.5885 15.999 -0.35515
1541 82 2 14.5942 26.2882 24.4331 12.011 0.03297
1542 82 2 14.6848 28.6224 24.1799 12.011 0.01762
1543 82 2 13.2216 28.8333 24.5739 12.011 -0.23743
1544 82 2 13.0376 30.2065 25.1734 12.011 -0.24423
1545 82 3 14.9217 25.0241 23.6912 12.011 -0.1837
1546 82 3 13.9864 24.1282 23.436 12.011 -0.23415
1547 82 1 12.9702 24.3113 23.7683 1.008 0.12909
1548 82 1 14.1903 23.2058 22.9087 1.008 0.12909
1549 82 1 15.9524 24.8863 23.375 1.008 0.15086
1550 82 1 13.5222 26.274 24.6319 1.008 0.07222
1551 82 1 15.1258 26.2875 25.383 1.008 0.07222
1552 82 1 15.3268 28.7436 25.0527 1.008 0.09202
1553 82 1 14.9886 29.3722 23.4484 1.008 0.09202
1554 82 1 12.9316 28.1276 25.3491 1.008 0.10167
1555 82 1 12.5496 28.7143 23.7232 1.008 0.10167
1556 82 1 12.191 30.1868 25.8561 1.008 0.08773
1557 82 1 13.9259 30.4746 25.7412 1.008 0.08773
1558 82 1 12.8634 30.9434 24.3916 1.008 0.08773
1559 83 4 10.6936 41.1893 35.3341 15.999 -0.35515
1560 83 2 10.1777 41.0545 36.6342 12.011 0.03297
1561 83 2 11.8916 40.5299 35.0675 12.011 0.01762
1562 83 2 12.9856 41.1656 35.9009 12.011 -0.23743
1563 83 2 14.2942 40.4951 35.6026 12.011 -0.24423
1564 83 3 8.81513 41.6908 36.7261 12.011 -0.1837
1565 83 3 8.5987 42.7487 37.4797 12.011 -0.23415
1566 83 1 9.41871 43.1331 38.0633 1.008 0.12909
1567 83 1 7.63242 43.2282 37.5334 1.008 0.12909
1568 83 1 8.01274 41.2894 36.1151 1.008 0.15086
1569 83 1 10.835 41.6274 37.273 1.008 0.07222
1570 83 1 10.0937 40.0315 36.9893 1.008 0.07222
1571 83 1 11.7995 39.4656 35.2729 1.008 0.09202
1572 83 1 12.0834 40.6441 33.9981 1.008 0.09202
1573 83 1 12.7844 41.0061 36.9562 1.008 0.10167
1574 83 1 13.0599 42.2372 35.7149 1.008 0.10167
1575 83 1 14.9373 40.5799 36.4727 1.008 0.08773
1576 83 1 14.1199 39.4403 35.4095 1.008 0.08773
1577 83 1 14.769 40.9569 34.7402 1.008 0.08773
1578 84 4 13.5421 31.5048 39.7192 15.999 -0.35515
1579 84 2 14.2352 32.5306 39.0537 12.011 0.03297
1580 84 2 12.1459 31.6805 39.6993 12.011 0.01762
1581 84 2 11.697 32.979 40.3702 12.011 -0.23743
1582 84 2 10.1943 33.0917 40.3483 12.011 -0.24423
1583 84 3 15.7005 32.2111 39.0929 12.011 -0.1837
1584 84 3 16.5639 33.0468 39.6392 12.011 -0.23415
1585 84 1 16.1943 33.9458 40.1203 1.008 0.12909
1586 84 1 17.615 32.809 39.7517 1.008 0.12909
1587 84 1 16.0051 31.2585 38.674 1.008 0.15086
1588 84 1 14.1011 33.4742 39.5818 1.008 0.07222
1589 84 1 13.9515 32.6651 38.0127 1.008 0.07222
1590 84 1 11.789 31.6536 38.6712 1.008 0.09202
1591 84 1 11.7178 30.8244 40.2185 1.008 0.09202
1592 84 1 12.0745 33.8399 39.8258 1.008 0.10167
1593 84 1 12.0332 33.0492 41.3999 1.008 0.10167
1594 84 1 9.91596 34.1421 40.3698 1.008 0.08773
1595 84 1 9.81514 32.6639 39.4266 1.008 0.08773
1596 84 1 9.75808 32.5759 41.2015 1.008 0.08773
1597 85 4 9.45673 28.2233 6.33968 15.999 -0.35515
1598 85 2 8.34218 28.3992 7.17807 12.011 0.03297
1599 85 2 9.27101 27.2205 5.37065 12.011 0.01762
1600 85 2 9.01209 25.848 5.98969 12.011 -0.23743
1601 85 2 8.85657 24.8069 4.91019 12.011 -0.24423
1602 85 3 8.65813 29.5236 8.12103 12.011 -0.1837
1603 85 3 8.66899 29.327 9.42607 12.011 -0.23415
1604 85 1 8.4452 28.3407 9.81638 1.008 0.12909
1605 85 1 8.89109 30.1162 10.1321 1.008 0.12909
1606 85 1 8.879 30.4933 7.682 1.008 0.15086
1607 85 1 8.18651 27.5072 7.78328 1.008 0.07222
1608 85 1 7.41445 28.6258 6.661 1.008 0.07222
1609 85 1 8.45053 27.4899 4.70598 1.008 0.09202
1610 85 1 10.181 27.196 4.77059 1.008 0.09202
1611 85 1 8.07628 25.8483 6.5437 1.008 0.10167
1612 85 1 9.81852 25.5529 6.65831 1.008 0.10167
1613 85 1 8.23371 23.9962 5.2811 1.008 0.08773
1614 85 1 8.36221 25.2518 4.05051 1.008 0.08773
1615 85 1 9.82929 24.4193 4.61734 1.008 0.08773
1616 86 4 46.6795 43.8993 37.9375 15.999 -0.35515
1617 86 2 48.0461 44.1714 37.9281 12.011 0.03297
1618 86 2 45.8629 45.009 38.2153 12.011 0.01762
1619 86 2 46.1422 45.5966 39.592 12.011 -0.23743
1620 86 2 45.2242 46.7648 39.8463 12.011 -0.24423
1621 86 3 48.7656 42.9049 37.5758 12.011 -0.1837
1622 86 3 49.6411 42.3699 38.4052 12.011 -0.23415
1623 86 1 49.8333 42.8608 39.3513 1.008 0.12909
1624 86 1 50.1849 41.4646 38.1754 1.008 0.12909
1625 86 1 48.5318 42.4622 36.6145 1.008 0.15086
1626 86 1 48.3579 44.4536 38.9293 1.008 0.07222
1627 86 1 48.3284 44.9482 37.2276 1.008 0.07222
1628 86 1 45.9827 45.7535 37.4346 1.008 0.09202
1629 86 1 44.8248 44.6871 38.1654 1.008 0.09202
1630 86 1 47.1531 45.9908 39.6237 1.008 0.10167
1631 86 1 46.0262 44.8586 40.3859 1.008 0.10167
1632 86 1 45.7103 47.4515 40.5346 1.008 0.08773
1633 86 1 45.0414 47.2906 38.912 1.008 0.08773
1634 86 1 44.2805 46.4232 40.2685 1.008 0.08773
1635 87 4 19.6677 32.5882 4.99013 15.999 -0.35515
1636 87 2 18.5748 32.3067 4.15168 12.011 0.03297
1637 87 2 20.6588 33.3698 4.36761 12.011 0.01762
1638 87 2 21.2575 32.6888 3.13558 12.011 -0.23743
1639 87 2 22.3332 33.5602 2.53278 12.011 -0.24423
1640 87 3 17.5855 31.5101 4.95245 12.011 -0.1837
1641 87 3 17.2279 30.2975 4.5731 12.011 -0.23415
1642 87 1 17.66 29.8742 3.67325 1.008 0.12909
1643 87 1 16.5189 29.6975 5.12808 1.008 0.12909
1644 87 1 17.1876 31.9739 5.85094 1.008 0.15086
1645 87 1 18.8955 31.6766 3.32197 1.008 0.07222
1646 87 1 18.075 33.1867 3.75019 1.008 0.07222
1647 87 1 20.2482 34.3421 4.09367 1.008 0.09202
1648 87 1 21.4338 33.5445 5.11505 1.008 0.09202
1649 87 1 20.5024 32.5697 2.36252 1.008 0.10167
1650 87 1 21.6744 31.7095 3.37287 1.008 0.10167
1651 87 1 22.4121 33.3454 1.4698 1.008 0.08773
1652 87 1 22.0593 34.6063 2.64943 1.008 0.08773
1653 87 1 23.2899 33.374 3.01772 1.008 0.08773
1654 88 4 25.3687 12.8873 48.3913 15.999 -0.35515
1655 88 2 25.1349 12.8374 49.7767 12.011 0.03297
1656 88 2 26.7083 13.1649 48.0623 12.011 0.01762
1657 88 2 27.1763 14.5185 48.5988 12.011 -0.23743
1658 88 2 28.6065 14.7727 48.1875 12.011 -0.24423
1659 88 3 23.6864 12.4945 49.9758 12.011 -0.1837
1660 88 3 22.8799 13.3134 50.6256 12.011 -0.23415
1661 88 1 23.2737 14.2447 51.0163 1.008 0.12909
1662 88 1 21.8339 13.0914 50.7905 1.008 0.12909
1663 88 1 23.3412 11.5499 49.5636 1.008 0.15086
1664 88 1 25.2931 13.8225 50.2154 1.008 0.07222
1665 88 1 25.7464 12.1133 50.3131 1.008 0.07222
1666 88 1 27.3559 12.3704 48.4346 1.008 0.09202
1667 88 1 26.7723 13.1503 46.9738 1.008 0.09202
1668 88 1 27.175 14.5173 49.6863 1.008 0.10167
1669 88 1 26.547 15.3374 48.2495 1.008 0.10167
1670 88 1 29.074 15.4325 48.915 1.008 0.08773
1671 88 1 29.1537 13.8327 48.1818 1.008 0.08773
1672 88 1 28.6439 15.2285 47.2002 1.008 0.08773
1673 89 4 12.1995 14.7456 2.76307 15.999 -0.35515
1674 89 2 11.8284 16.0452 3.11998 12.011 0.03297
1675 89 2 11.1418 13.9255 2.36123 12.011 0.01762
1676 89 2 10.0947 13.7506 3.44731 12.011 -0.23743
1677 89 2 8.99449 12.8481 2.95481 12.011 -0.24423
1678 89 3 13.0649 16.8039 3.48089 12.011 -0.1837
1679 89 3 13.1993 17.3131 4.68342 12.011 -0.23415
1680 89 1 12.4158 17.2033 5.4193 1.008 0.12909
1681 89 1 14.1018 17.8194 4.96772 1.008 0.12909
1682 89 1 13.8556 16.8815 2.74188 1.008 0.15086
1683 89 1 11.2008 16.0132 4.00856 1.008 0.07222
1684 89 1 11.3205 16.5834 2.3302 1.008 0.07222
1685 89 1 10.7011 14.3365 1.45806 1.008 0.09202
1686 89 1 11.5645 12.958 2.10569 1.008 0.09202
1687 89 1 9.62853 14.7049 3.67497 1.008 0.10167
1688 89 1 10.5258 13.3375 4.35842 1.008 0.10167
1689 89 1 8.07253 13.1035 3.46645 1.008 0.08773
1690 89 1 8.8347 13.0139 1.89374 1.008 0.08773
1691 89 1 9.24374 11.805 3.13622 1.008 0.08773
1692 90 4 22.7617 27.3156 20.6388 15.999 -0.35515
1693 90 2 21.4581 27.8376 20.6956 12.011 0.03297
1694 90 2 23.5949 28.0008 19.7374 12.011 0.01762
1695 90 2 23.0775 27.9466 18.2998 12.011 -0.23743
1696 90 2 24.027 28.6727 17.3782 12.011 -0.24423
1697 90 3 20.6993 27.0462 21.7204 12.011 -0.1837
1698 90 3 19.6099 26.3801 21.3876 12.011 -0.23415
1699 90 1 19.2662 26.4006 20.3598 1.008 0.12909
1700 90 1 19.0388 25.8048 22.1029 1.008 0.12909
1701 90 1 21.0848 27.0471 22.7361 1.008 0.15086
1702 90 1 20.9551 27.6882 19.7401 1.008 0.07222
1703 90 1 21.4032 28.893 20.9573 1.008 0.07222
1704 90 1 23.7138 29.0368 20.0543 1.008 0.09202
1705 90 1 24.5743 27.5301 19.8045 1.008 0.09202
1706 90 1 22.1278 28.4706 18.2183 1.008 0.10167
1707 90 1 22.9419 26.922 17.9519 1.008 0.10167
1708 90 1 23.477 29.0439 16.517 1.008 0.08773
1709 90 1 24.4618 29.5226 17.8989 1.008 0.08773
1710 90 1 24.8161 28.0079 17.041 1.008 0.08773
1711 91 4 9.59251 19.4921 48.8926 15.999 -0.35515
1712 91 2 9.1847 19.8728 50.1834 12.011 0.03297
1713 91 2 10.4465 18.3729 48.8886 12.011 0.01762
1714 91 2 11.7411 18.6166 49.6664 12.011 -0.23743
1715 91 2 12.6273 17.3972 49.5986 12.011 -0.24423
1716 91 3 8.25528 21.042 50.0318 12.011 -0.1837
1717 91 3 8.53478 22.2058 50.589 12.011 -0.23415
1718 91 1 9.44977 22.313 51.1592 1.008 0.12909
1719 91 1 7.8873 23.0667 50.5014 1.008 0.12909
1720 91 1 7.35639 20.8845 49.4436 1.008 0.15086
1721 91 1 10.0438 20.2208 50.7572 1.008 0.07222
1722 91 1 8.68036 19.0902 50.7489 1.008 0.07222
1723 91 1 9.92554 17.5052 49.2942 1.008 0.09202
1724 91 1 10.6716 18.1556 47.8439 1.008 0.09202
1725 91 1 11.5274 18.7729 50.7212 1.008 0.10167
1726 91 1 12.286 19.482 49.2903 1.008 0.10167
1727 91 1 13.2639 17.3679 50.4802 1.008 0.08773
1728 91 1 12.0099 16.5016 49.5977 1.008 0.08773
1729 91 1 13.2417 17.4215 48.7007 1.008 0.08773
1730 92 4 26.3192 31.3448 29.6528 15.999 -0.35515
1731 92 2 25.6368 31.4671 28.4294 12.011 0.03297
1732 92 2 26.141 32.4528 30.5012 12.011 0.01762
1733 92 2 26.66 33.7464 29.8887 12.011 -0.23743
1734 92 2 26.4867 34.8913 30.8351 12.011 -0.24423
1735 92 3 25.8757 30.2055 27.6522 12.011 -0.1837
1736 92 3 26.4679 30.2348 26.4727 12.011 -0.23415
1737 92 1 26.782 31.1874 26.0617 1.008 0.12909
1738 92 1 26.6522 29.3443 25.8869 1.008 0.12909
1739 92 1 25.542 29.2767 28.1038 1.008 0.15086
1740 92 1 26.0593 32.2816 27.8487 1.008 0.07222
1741 92 1 24.5652 31.634 28.5161 1.008 0.07222
1742 92 1 25.0886 32.5642 30.7601 1.008 0.09202
1743 92 1 26.6825 32.2351 31.4203 1.008 0.09202
1744 92 1 26.0754 34.0086 29.0126 1.008 0.10167
1745 92 1 27.7093 33.681 29.613 1.008 0.10167
1746 92 1 26.4024 35.818 30.2788 1.008 0.08773
1747 92 1 25.5659 34.7405 31.3867 1.008 0.08773
1748 92 1 27.3303 34.9622 31.5153 1.008 0.08773
1749 93 4 43.4081 21.5851 50.5135 15.999 -0.35515
1750 93 2 43.4315 20.3188 49.9132 12.011 0.03297
1751 93 2 42.1997 21.904 51.1538 12.011 0.01762
1752 93 2 41.0035 21.883 50.2018 12.011 -0.23743
1753 93 2 39.7438 22.2396 50.951 12.011 -0.24423
1754 93 3 44.7913 20.1238 49.2976 12.011 -0.1837
1755 93 3 44.9237 19.9019 48.0022 12.011 -0.23415
1756 93 1 44.0364 19.8808 47.3813 1.008 0.12909
1757 93 1 45.8837 19.772 47.5221 1.008 0.12909
1758 93 1 45.6496 20.1934 49.9592 1.008 0.15086
1759 93 1 42.7024 20.2836 49.1039 1.008 0.07222
1760 93 1 43.2362 19.5057 50.6032 1.008 0.07222
1761 93 1 42.0421 21.2072 51.9748 1.008 0.09202
1762 93 1 42.322 22.8988 51.5874 1.008 0.09202
1763 93 1 40.8475 20.8811 49.811 1.008 0.10167
1764 93 1 41.1305 22.5676 49.3644 1.008 0.10167
1765 93 1 38.8931 21.7805 50.4535 1.008 0.08773
1766 93 1 39.8017 21.8439 -0.0233055 1.008 0.08773
1767 93 1 39.6137 23.3198 50.9852 1.008 0.08773
1768 94 4 44.4351 12.2997 24.9602 15.999 -0.35515
1769 94 2 45.3864 12.1973 23.9394 12.011 0.03297
1770 94 2 43.1259 11.9595 24.5798 12.011 0.01762
1771 94 2 42.613 12.9262 23.521 12.011 -0.23743
1772 94 2 41.1961 12.5775 23.1477 12.011 -0.24423
1773 94 3 46.7317 12.4871 24.5417 12.011 -0.1837
1774 94 3 47.4491 13.5082 24.1189 12.011 -0.23415
1775 94 1 47.055 14.1409 23.3331 1.008 0.12909
1776 94 1 48.4241 13.746 24.5184 1.008 0.12909
1777 94 1 47.088 11.8257 25.3246 1.008 0.15086
1778 94 1 45.1752 12.9717 23.216 1.008 0.07222
1779 94 1 45.4216 11.233 23.4351 1.008 0.07222
1780 94 1 43.0798 10.9311 24.219 1.008 0.09202
1781 94 1 42.5048 12.0113 25.4766 1.008 0.09202
1782 94 1 43.1968 12.8313 22.6099 1.008 0.10167
1783 94 1 42.6565 13.962 23.8589 1.008 0.10167
1784 94 1 41.0057 12.9067 22.129 1.008 0.08773
1785 94 1 41.0695 11.4997 23.1893 1.008 0.08773
1786 94 1 40.4937 13.0588 23.826 1.008 0.08773
1787 95 4 35.2857 8.88155 26.3556 15.999 -0.35515
1788 95 2 34.1678 8.07777 26.622 12.011 0.03297
1789 95 2 35.0008 10.257 26.3813 12.011 0.01762
1790 95 2 33.9487 10.6622 25.3478 12.011 -0.23743
1791 95 2 33.712 12.1518 25.4055 12.011 -0.24423
1792 95 3 34.6535 6.65875 26.5726 12.011 -0.1837
1793 95 3 34.1365 5.79322 25.7209 12.011 -0.23415
1794 95 1 33.3432 6.11827 25.0563 1.008 0.12909
1795 95 1 34.4028 4.74236 25.7137 1.008 0.12909
1796 95 1 35.3977 6.36807 27.3076 1.008 0.15086
1797 95 1 33.4243 8.1862 25.8326 1.008 0.07222
1798 95 1 33.6869 8.27245 27.5812 1.008 0.07222
1799 95 1 34.6749 10.5475 27.3797 1.008 0.09202
1800 95 1 35.9416 10.7717 26.1839 1.008 0.09202
1801 95 1 32.9926 10.1975 25.5766 1.008 0.10167
1802 95 1 34.2429 10.3803 24.3359 1.008 0.10167
1803 95 1 32.7026 12.3666 25.0628 1.008 0.08773
1804 95 1 33.8008 12.4921 26.4347 1.008 0.08773
1805 95 1 34.4325 12.6759 24.78 1.008 0.08773
1806 96 4 9.03733 6.1548 32.6428 15.999 -0.35515
1807 96 2 8.70369 6.52929 33.9565 12.011 0.03297
1808 96 2 9.76286 4.95087 32.5757 12.011 0.01762
1809 96 2 11.0929 5.02083 33.3276 12.011 -0.23743
1810 96 2 11.8359 3.71383 33.1912 12.011 -0.24423
1811 96 3 7.90375 7.79769 33.8735 12.011 -0.1837
1812 96 3 8.32342 8.90197 34.464 12.011 -0.23415
1813 96 1 9.25791 8.88625 35.0142 1.008 0.12909
1814 96 1 7.76938 9.83025 34.4262 1.008 0.12909
1815 96 1 6.97705 7.76335 33.3076 1.008 0.15086
1816 96 1 9.60876 6.75812 34.5199 1.008 0.07222
1817 96 1 8.1294 5.78547 34.5068 1.008 0.07222
1818 96 1 9.15816 4.13036 32.9627 1.008 0.09202
1819 96 1 9.93951 4.75181 31.5184 1.008 0.09202
1820 96 1 10.9204 5.15663 34.3931 1.008 0.10167
1821 96 1 11.7226 5.83551 32.9685 1.008 0.10167
1822 96 1 12.4849 3.58096 34.054 1.008 0.08773
1823 96 1 11.1226 2.89267 33.1743 1.008 0.08773
1824 96 1 12.4301 3.70655 32.2796 1.008 0.08773
1825 97 4 18.1569 30.6026 34.963 15.999 -0.35515
1826 97 2 17.0726 29.9389 34.362 12.011 0.03297
1827 97 2 18.8623 31.4318 34.0707 12.011 0.01762
1828 97 2 19.4577 30.6617 32.8908 12.011 -0.23743
1829 97 2 20.2234 31.6031 31.9917 12.011 -0.24423
1830 97 3 16.3967 29.1285 35.4294 12.011 -0.1837
1831 97 3 16.2936 27.817 35.3169 12.011 -0.23415
1832 97 1 16.701 27.3239 34.4423 1.008 0.12909
1833 97 1 15.8085 27.2028 36.0627 1.008 0.12909
1834 97 1 16.005 29.664 36.2899 1.008 0.15086
1835 97 1 17.4329 29.2378 33.6083 1.008 0.07222
1836 97 1 16.3379 30.5981 33.9029 1.008 0.07222
1837 97 1 18.2088 32.2249 33.7067 1.008 0.09202
1838 97 1 19.6566 31.9062 34.6476 1.008 0.09202
1839 97 1 18.6675 30.238 32.2751 1.008 0.10167
1840 97 1 20.1143 29.8556 33.2194 1.008 0.10167
1841 97 1 20.2232 31.2105 30.9778 1.008 0.08773
1842 97 1 19.7278 32.5702 31.9732 1.008 0.08773
1843 97 1 21.2471 31.7167 32.3427 1.008 0.08773
1844 98 4 41.2228 47.7293 44.2943 15.999 -0.35515
1845 98 2 41.8665 48.9757 44.3951 12.011 0.03297
1846 98 2 40.0299 47.7806 43.5502 12.011 0.01762
1847 98 2 38.9916 48.7212 44.1625 12.011 -0.23743
1848 98 2 37.7271 48.7065 43.3384 12.011 -0.24423
1849 98 3 43.134 48.7657 45.1726 12.011 -0.1837
1850 98 3 43.3449 49.4037 46.3083 12.011 -0.23415
1851 98 1 42.5903 50.0884 46.6791 1.008 0.12909
1852 98 1 44.2491 49.2784 46.8889 1.008 0.12909
1853 98 1 43.8575 48.0683 44.7591 1.008 0.15086
1854 98 1 41.2504 49.6675 44.9698 1.008 0.07222
1855 98 1 42.1114 49.4387 43.4403 1.008 0.07222
1856 98 1 40.2445 48.0755 42.5225 1.008 0.09202
1857 98 1 39.6381 46.7647 43.523 1.008 0.09202
1858 98 1 39.3512 49.7473 44.1404 1.008 0.10167
1859 98 1 38.7578 48.4545 45.1936 1.008 0.10167
1860 98 1 37.2134 49.6575 43.4592 1.008 0.08773
1861 98 1 37.9816 48.5879 42.2878 1.008 0.08773
1862 98 1 37.0759 47.8937 43.6554 1.008 0.08773
1863 99 4 44.0196 48.2862 30.7898 15.999 -0.35515
1864 99 2 44.2023 48.072 29.4294 12.011 0.03297
1865 99 2 42.7761 47.9272 31.3129 12.011 0.01762
1866 99 2 41.6423 48.6892 30.6411 12.011 -0.23743
1867 99 2 40.3278 48.266 31.2383 12.011 -0.24423
1868 99 3 45.5978 48.5041 29.0751 12.011 -0.1837
1869 99 3 45.8082 49.4302 28.159 12.011 -0.23415
1870 99 1 44.9551 49.8962 27.6815 1.008 0.12909
1871 99 1 46.8004 49.7367 27.8572 1.008 0.12909
1872 99 1 46.4201 47.9886 29.5687 1.008 0.15086
1873 99 1 43.5194 48.7028 28.8698 1.008 0.07222
1874 99 1 44.0522 47.0342 29.1583 1.008 0.07222
1875 99 1 42.6556 46.8553 31.2035 1.008 0.09202
1876 99 1 42.8038 48.1409 32.3824 1.008 0.09202
1877 99 1 41.601 48.4277 29.5894 1.008 0.10167
1878 99 1 41.7548 49.7697 30.7317 1.008 0.10167
1879 99 1 39.5395 48.3913 30.5037 1.008 0.08773
1880 99 1 40.3778 47.214 31.4961 1.008 0.08773
1881 99 1 40.1017 48.8527 32.125 1.008 0.08773
1882 100 4 16.5928 24.2466 4.02815 15.999 -0.35515
1883 100 2 16.0454 24.1374 2.74994 12.011 0.03297
1884 100 2 15.6643 24.5649 5.03395 12.011 0.01762
1885 100 2 14.9686 25.9027 4.80234 12.011 -0.23743
1886 100 2 13.9835 26.1878 5.90398 12.011 -0.24423
1887 100 3 17.1426 23.7718 1.79834 12.011 -0.1837
1888 100 3 17.4355 24.55 0.772787 12.011 -0.23415
1889 100 1 16.8716 25.4634 0.622339 1.008 0.12909
1890 100 1 18.2186 24.3091 0.0679589 1.008 0.12909
1891 100 1 17.6723 22.8454 1.9967 1.008 0.15086
1892 100 1 15.6556 25.1017 2.43237 1.008 0.07222
1893 100 1 15.2704 23.3826 2.69275 1.008 0.07222
1894 100 1 14.9341 23.761 5.11594 1.008 0.09202
1895 100 1 16.2174 24.6053 5.97087 1.008 0.09202
1896 100 1 14.3838 25.8562 3.90665 1.008 0.10167
1897 100 1 15.6631 26.7307 4.68747 1.008 0.10167
1898 100 1 13.1796 26.8141 5.52276 1.008 0.08773
1899 100 1 13.5508 25.2531 6.25259 1.008 0.08773
1900 100 1 14.4896 26.6949 6.71975 1.008 0.08773
1901 101 4 23.633 19.1608 17.2403 15.999 -0.35515
1902 101 2 24.4753 18.078 16.9374 12.011 0.03297
1903 101 2 23.0316 19.7231 16.1 12.011 0.01762
1904 101 2 24.0516 20.2742 15.1023 12.011 -0.23743
1905 101 2 23.3447 20.9004 13.9263 12.011 -0.24423
1906 101 3 25.0145 17.549 18.2334 12.011 -0.1837
1907 101 3 26.3123 17.5257 18.4677 12.011 -0.23415
1908 101 1 26.9941 17.8976 17.7137 1.008 0.12909
1909 101 1 26.7309 17.158 19.3937 1.008 0.12909
1910 101 1 24.2951 17.1997 18.9654 1.008 0.15086
1911 101 1 25.3296 18.4222 16.3554 1.008 0.07222
1912 101 1 23.9923 17.2661 16.3981 1.008 0.07222
1913 101 1 22.3895 18.9926 15.6168 1.008 0.09202
1914 101 1 22.3761 20.5156 16.4496 1.008 0.09202
1915 101 1 24.6556 19.4679 14.6966 1.008 0.10167
1916 101 1 24.7167 21.0074 15.5577 1.008 0.10167
1917 101 1 23.9943 20.8491 13.0591 1.008 0.08773
1918 101 1 22.4412 20.3399 13.7104 1.008 0.08773
1919 101 1 23.0919 21.9377 14.1293 1.008 0.08773
1920 102 4 49.0084 25.594 3.60632 15.999 -0.35515
1921 102 2 48.7332 25.8509 2.2512 12.011 0.03297
1922 102 2 47.987 26.0316 4.47128 12.011 0.01762
1923 102 2 47.7509 27.5408 4.3861 12.011 -0.23743
1924 102 2 46.6718 27.9541 5.3573 12.011 -0.24423
1925 102 3 49.8759 25.2966 1.44969 12.011 -0.1837
1926 102 3 50.606 26.0816 0.678749 12.011 -0.23415
1927 102 1 50.3709 27.139 0.628435 1.008 0.12909
1928 102 1 51.4314 25.7123 0.0856551 1.008 0.12909
1929 102 1 50.0692 24.2309 1.53672 1.008 0.15086
1930 102 1 48.7103 26.9263 2.07395 1.008 0.07222
1931 102 1 47.8026 25.4177 1.88655 1.008 0.07222
1932 102 1 47.0605 25.4971 4.25797 1.008 0.09202
1933 102 1 48.293 25.7561 5.48104 1.008 0.09202
1934 102 1 47.3841 27.8136 3.39907 1.008 0.10167
1935 102 1 48.6589 28.1089 4.5895 1.008 0.10167
1936 102 1 46.1844 28.8537 4.98745 1.008 0.08773
1937 102 1 45.9249 27.166 5.42453 1.008 0.08773
1938 102 1 47.0966 28.1446 6.34079 1.008 0.08773
1939 103 4 44.6412 17.1352 16.405 15.999 -0.35515
1940 103 2 44.3783 17.6874 15.1422 12.011 0.03297
1941 103 2 44.6705 15.73 16.3972 12.011 0.01762
1942 103 2 43.3932 15.0811 15.9345 12.011 -0.23743
1943 103 2 43.5077 13.5787 15.9731 12.011 -0.24423
1944 103 3 44.3898 19.1792 15.2923 12.011 -0.1837
1945 103 3 43.3202 19.8954 14.999 12.011 -0.23415
1946 103 1 42.4267 19.3935 14.6462 1.008 0.12909
1947 103 1 43.2964 20.9725 15.0961 1.008 0.12909
1948 103 1 45.3075 19.6335 15.6555 1.008 0.15086
1949 103 1 43.3809 17.4036 14.8102 1.008 0.07222
1950 103 1 45.0932 17.4137 14.373 1.008 0.07222
1951 103 1 45.4323 15.3627 15.7343 1.008 0.09202
1952 103 1 44.9304 15.4136 17.3995 1.008 0.09202
1953 103 1 43.1796 15.3414 14.9028 1.008 0.10167
1954 103 1 42.5851 15.4021 16.574 1.008 0.10167
1955 103 1 42.8283 13.1482 15.2427 1.008 0.08773
1956 103 1 44.5204 13.2847 15.7101 1.008 0.08773
1957 103 1 43.2545 13.2066 16.9637 1.008 0.08773
1958 104 4 15.2143 7.71818 2.10532 15.999 -0.35515
1959 104 2 15.1533 8.35909 0.861825 12.011 0.03297
1960 104 2 14.19 6.78568 2.33067 12.011 0.01762
1961 104 2 12.7988 7.37798 2.20291 12.011 -0.23743
1962 104 2 11.7376 6.35569 2.50943 12.011 -0.24423
1963 104 3 16.332 9.27701 0.728173 12.011 -0.1837
1964 104 3 16.1596 10.5611 0.532539 12.011 -0.23415
1965 104 1 15.1499 10.8805 0.421827 1.008 0.12909
1966 104 1 16.9478 11.296 0.473836 1.008 0.12909
1967 104 1 17.3173 8.8614 0.859536 1.008 0.15086
1968 104 1 14.2428 8.94945 0.773347 1.008 0.07222
1969 104 1 15.2106 7.6687 0.0491062 1.008 0.07222
1970 104 1 14.2871 5.97258 1.62684 1.008 0.09202
1971 104 1 14.3456 6.38724 3.33469 1.008 0.09202
1972 104 1 12.6011 7.77079 1.2167 1.008 0.10167
1973 104 1 12.7184 8.21019 2.86287 1.008 0.10167
1974 104 1 10.8199 6.63698 2.00135 1.008 0.08773
1975 104 1 12.0766 5.40365 2.11793 1.008 0.08773
1976 104 1 11.5584 6.27611 3.5808 1.008 0.08773
1977 105 4 9.3493 40.1137 30.7774 15.999 -0.35515
1978 105 2 9.79654 39.3544 29.7127 12.011 0.03297
1979 105 2 9.62211 41.4833 30.6418 12.011 0.01762
1980 105 2 11.0963 41.8128 30.5702 12.011 -0.23743
1981 105 2 11.2888 43.305 30.4786 12.011 -0.24423
1982 105 3 9.4243 37.9294 29.9786 12.011 -0.1837
1983 105 3 10.3526 36.9957 30.0409 12.011 -0.23415
1984 105 1 11.3913 37.2721 29.9108 1.008 0.12909
1985 105 1 10.1207 35.9551 30.2204 1.008 0.12909
1986 105 1 8.37124 37.7036 30.1158 1.008 0.15086
1987 105 1 10.8787 39.4088 29.6727 1.008 0.07222
1988 105 1 9.37467 39.6757 28.769 1.008 0.07222
1989 105 1 9.04696 41.9024 29.8324 1.008 0.09202
1990 105 1 9.24962 41.9999 31.4948 1.008 0.09202
1991 105 1 11.4881 41.3975 29.6576 1.008 0.10167
1992 105 1 11.6549 41.4224 31.4209 1.008 0.10167
1993 105 1 12.2074 43.5036 29.9334 1.008 0.08773
1994 105 1 10.4614 43.7479 29.9281 1.008 0.08773
1995 105 1 11.3462 43.7471 31.4721 1.008 0.08773
1996 106 4 8.73124 29.993 35.6896 15.999 -0.35515
1997 106 2 8.18714 29.804 36.9729 12.011 0.03297
1998 106 2 7.834 29.8147 34.6308 12.011 0.01762
1999 106 2 7.18309 28.4334 34.6166 12.011 -0.23743
2000 106 2 6.22222 28.3392 33.4586 12.011 -0.24423
2001 106 3 9.25713 30.0276 38.009 12.011 -0.1837
2002 106 3 9.61322 29.0643 38.8401 12.011 -0.23415
2003 106 1 9.11468 28.1052 38.7893 1.008 0.12909
2004 106 1 10.41 29.1607 39.5636 1.008 0.12909
2005 106 1 9.78702 30.9718 37.9661 1.008 0.15086
2006 106 1 7.84922 28.7766 37.0848 1.008 0.07222
2007 106 1 7.37305 30.4814 37.183 1.008 0.07222
2008 106 1 7.08168 30.5947 34.7078 1.008 0.09202
2009 106 1 8.39509 29.9821 33.7098 1.008 0.09202
2010 106 1 6.58798 28.2894 35.5138 1.008 0.10167
2011 106 1 7.91837 27.6307 34.5485 1.008 0.10167
2012 106 1 5.4423 27.6211 33.6983 1.008 0.08773
2013 106 1 5.75307 29.3076 33.2968 1.008 0.08773
2014 106 1 6.74345 28.0289 32.5553 1.008 0.08773
2015 107 4 11.6384 40.7739 15.4633 15.999 -0.35515
2016 107 2 12.1172 39.5025 15.1054 12.011 0.03297
2017 107 2 11.6817 41.017 16.8489 12.011 0.01762
2018 107 2 10.8355 40.0237 17.6477 12.011 -0.23743
2019 107 2 10.8991 40.3529 19.1197 12.011 -0.24423
2020 107 3 12.0501 39.4017 13.609 12.011 -0.1837
2021 107 3 11.3233 38.4657 13.0264 12.011 -0.23415
2022 107 1 10.7666 37.7674 13.6414 1.008 0.12909
2023 107 1 11.2548 38.366 11.9513 1.008 0.12909
2024 107 1 12.6183 40.1305 13.0366 1.008 0.15086
2025 107 1 11.4608 38.731 15.5081 1.008 0.07222
2026 107 1 13.137 39.2977 15.4267 1.008 0.07222
2027 107 1 12.7142 40.9914 17.1974 1.008 0.09202
2028 107 1 11.313 42.0324 17.0005 1.008 0.09202
2029 107 1 11.2344 39.0173 17.5488 1.008 0.10167
2030 107 1 9.79474 40.0216 17.321 1.008 0.10167
2031 107 1 10.7292 39.4464 19.6958 1.008 0.08773
2032 107 1 11.8891 40.7311 19.3632 1.008 0.08773
2033 107 1 10.1467 41.0977 19.3766 1.008 0.08773
2034 108 4 20.3953 39.5125 21.5779 15.999 -0.35515
2035 108 2 20.2659 40.2232 22.7839 12.011 0.03297
2036 108 2 20.4627 38.1185 21.7576 12.011 0.01762
2037 108 2 21.6565 37.6908 22.6128 12.011 -0.23743
2038 108 2 21.6899 36.1873 22.7441 12.011 -0.24423
2039 108 3 20.1659 41.6813 22.4386 12.011 -0.1837
2040 108 3 21.0526 42.5463 22.8943 12.011 -0.23415
2041 108 1 21.8619 42.1943 23.5247 1.008 0.12909
2042 108 1 21.0093 43.6032 22.6656 1.008 0.12909
2043 108 1 19.3417 41.9836 21.7981 1.008 0.15086
2044 108 1 21.1644 40.0983 23.3888 1.008 0.07222
2045 108 1 19.4001 39.9437 23.3816 1.008 0.07222
2046 108 1 19.5358 37.7572 22.2036 1.008 0.09202
2047 108 1 20.5367 37.6782 20.7625 1.008 0.09202
2048 108 1 21.5583 38.0757 23.625 1.008 0.10167
2049 108 1 22.6026 38.0396 22.1965 1.008 0.10167
2050 108 1 22.1882 35.9212 23.6732 1.008 0.08773
2051 108 1 20.6725 35.8051 22.7811 1.008 0.08773
2052 108 1 22.2191 35.7444 21.9022 1.008 0.08773
2053 109 4 40.7968 36.5023 30.0986 15.999 -0.35515
2054 109 2 40.6134 35.1714 29.7211 12.011 0.03297
2055 109 2 39.6782 37.0858 30.7228 12.011 0.01762
2056 109 2 38.4471 37.0908 29.8319 12.011 -0.23743
2057 109 2 37.2854 37.7449 30.5329 12.011 -0.24423
2058 109 3 41.8933 34.6901 29.1056 12.011 -0.1837
2059 109 3 41.9201 34.2427 27.8648 12.011 -0.23415
2060 109 1 41.0031 34.2287 27.2869 1.008 0.12909
2061 109 1 42.8265 33.8799 27.3987 1.008 0.12909
2062 109 1 42.7849 34.7244 29.724 1.008 0.15086
2063 109 1 39.8444 35.1117 28.9521 1.008 0.07222
2064 109 1 40.3547 34.5215 30.5517 1.008 0.07222
2065 109 1 39.4694 36.5708 31.6539 1.008 0.09202
2066 109 1 39.943 38.1111 30.9822 1.008 0.09202
2067 109 1 38.1377 36.0775 29.6085 1.008 0.10167
2068 109 1 38.6325 37.6074 28.894 1.008 0.10167
2069 109 1 36.3537 37.3422 30.1468 1.008 0.08773
2070 109 1 37.3389 37.5195 31.5903 1.008 0.08773
2071 109 1 37.3043 38.8226 30.3804 1.008 0.08773
2072 110 4 28.9788 2.00036 32.5243 15.999 -0.35515
2073 110 2 28.962 2.56393 31.2367 12.011 0.03297
2074 110 2 29.8496 2.6623 33.4121 12.011 0.01762
2075 110 2 31.3005 2.65372 32.9357 12.011 -0.23743
2076 110 2 32.1829 3.35271 33.9403 12.011 -0.24423
2077 110 3 27.966 1.79435 30.4209 12.011 -0.1837
2078 110 3 28.3419 1.17037 29.3206 12.011 -0.23415
2079 110 1 29.3812 1.22231 29.0149 1.008 0.12909
2080 110 1 27.6559 0.605117 28.7053 1.008 0.12909
2081 110 1 26.9406 1.76726 30.7778 1.008 0.15086
2082 110 1 29.9339 2.4533 30.7603 1.008 0.07222
2083 110 1 28.6982 3.61414 31.2015 1.008 0.07222
2084 110 1 29.5234 3.68916 33.5655 1.008 0.09202
2085 110 1 29.7654 2.15491 34.373 1.008 0.09202
2086 110 1 31.4016 3.2158 32.0102 1.008 0.10167
2087 110 1 31.6694 1.64104 32.7754 1.008 0.10167
2088 110 1 33.0551 3.75822 33.4331 1.008 0.08773
2089 110 1 31.6381 4.17771 34.3925 1.008 0.08773
2090 110 1 32.5052 2.6585 34.7147 1.008 0.08773
2091 111 4 28.1917 15.1921 35.6471 15.999 -0.35515
2092 111 2 27.5793 14.5781 34.5398 12.011 0.03297
2093 111 2 29.3978 14.5742 36.0267 12.011 0.01762
2094 111 2 29.2101 13.1091 36.4233 12.011 -0.23743
2095 111 2 30.5299 12.5165 36.846 12.011 -0.24423
2096 111 3 26.3353 15.3578 34.2246 12.011 -0.1837
2097 111 3 25.1483 14.7799 34.2529 12.011 -0.23415
2098 111 1 25.076 13.728 34.507 1.008 0.12909
2099 111 1 24.2343 15.3126 34.0275 1.008 0.12909
2100 111 1 26.4588 16.4088 33.9805 1.008 0.15086
2101 111 1 27.2646 13.5666 34.7986 1.008 0.07222
2102 111 1 28.202 14.5321 33.6479 1.008 0.07222
2103 111 1 30.1257 14.6516 35.2187 1.008 0.09202
2104 111 1 29.7896 15.1442 36.87 1.008 0.09202
2105 111 1 28.8817 12.521 35.5697 1.008 0.10167
2106 111 1 28.4849 12.992 37.2297 1.008 0.10167
2107 111 1 30.5126 11.4445 36.661 1.008 0.08773
2108 111 1 31.3332 12.9449 36.2519 1.008 0.08773
2109 111 1 30.7124 12.712 37.9016 1.008 0.08773
2110 112 4 31.6292 33.0281 29.3339 15.999 -0.35515
2111 112 2 31.7621 34.2559 30.005 12.011 0.03297
2112 112 2 30.6608 32.1857 29.9083 12.011 0.01762
2113 112 2 30.9819 31.8226 31.3577 12.011 -0.23743
2114 112 2 29.9275 30.8938 31.9065 12.011 -0.24423
2115 112 3 32.7869 35.0648 29.2696 12.011 -0.1837
2116 112 3 33.8926 35.4676 29.8672 12.011 -0.23415
2117 112 1 34.0599 35.2101 30.9068 1.008 0.12909
2118 112 1 34.6466 36.0543 29.3601 1.008 0.12909
2119 112 1 32.5741 35.2901 28.2292 1.008 0.15086
2120 112 1 32.1525 34.0914 31.0087 1.008 0.07222
2121 112 1 30.8445 34.837 30.0745 1.008 0.07222
2122 112 1 29.6794 32.651 29.8509 1.008 0.09202
2123 112 1 30.6208 31.2897 29.2919 1.008 0.09202
2124 112 1 30.9562 32.7082 31.9867 1.008 0.10167
2125 112 1 31.9607 31.355 31.4567 1.008 0.10167
2126 112 1 29.8715 31.0105 32.9859 1.008 0.08773
2127 112 1 28.9596 31.1522 31.4833 1.008 0.08773
2128 112 1 30.1646 29.8594 31.6677 1.008 0.08773
2129 113 4 10.1035 23.2036 29.6417 15.999 -0.35515
2130 113 2 10.565 22.8491 30.9002 12.011 0.03297
2131 113 2 9.35894 24.3952 29.6599 12.011 0.01762
2132 113 2 8.11963 24.3125 30.5516 12.011 -0.23743
2133 113 2 7.33125 25.596 30.4616 12.011 -0.24423
2134 113 3 11.4158 21.6193 30.8057 12.011 -0.1837
2135 113 3 11.0997 20.532 31.4841 12.011 -0.23415
2136 113 1 10.2271 20.542 32.1276 1.008 0.12909
2137 113 1 11.6823 19.6284 31.4186 1.008 0.12909
2138 113 1 12.2892 21.678 30.1658 1.008 0.15086
2139 113 1 9.75595 22.6403 31.5997 1.008 0.07222
2140 113 1 11.1383 23.6685 31.2837 1.008 0.07222
2141 113 1 9.97812 25.2384 29.9633 1.008 0.09202
2142 113 1 9.07009 24.5605 28.6242 1.008 0.09202
2143 113 1 8.40654 24.2092 31.5952 1.008 0.10167
2144 113 1 7.48024 23.4724 30.2793 1.008 0.10167
2145 113 1 6.77112 25.735 31.3829 1.008 0.08773
2146 113 1 8.01533 26.4338 30.3487 1.008 0.08773
2147 113 1 6.64595 25.5629 29.6164 1.008 0.08773
2148 114 4 24.9172 38.9315 15.3835 15.999 -0.35515
2149 114 2 25.2538 38.1777 14.264 12.011 0.03297
2150 114 2 23.6848 39.5763 15.2962 12.011 0.01762
2151 114 2 23.6075 40.5433 14.1183 12.011 -0.23743
2152 114 2 22.2574 41.2138 14.1009 12.011 -0.24423
2153 114 3 26.5768 37.526 14.5273 12.011 -0.1837
2154 114 3 27.5874 37.7054 13.6939 12.011 -0.23415
2155 114 1 27.4507 38.3864 12.8598 1.008 0.12909
2156 114 1 28.5639 37.2673 13.8367 1.008 0.12909
2157 114 1 26.6682 36.8592 15.3682 1.008 0.15086
2158 114 1 25.3799 38.833 13.4041 1.008 0.07222
2159 114 1 24.5295 37.4033 14.0218 1.008 0.07222
2160 114 1 22.9032 38.8241 15.2332 1.008 0.09202
2161 114 1 23.5588 40.1052 16.2387 1.008 0.09202
2162 114 1 23.6905 39.9991 13.1803 1.008 0.10167
2163 114 1 24.3962 41.2961 14.1553 1.008 0.10167
2164 114 1 22.0163 41.4963 13.0799 1.008 0.08773
2165 114 1 21.5025 40.5114 14.4481 1.008 0.08773
2166 114 1 22.2644 42.0942 14.7394 1.008 0.08773
2167 115 4 36.0982 18.2003 1.50807 15.999 -0.35515
2168 115 2 36.0726 18.8462 2.75671 12.011 0.03297
2169 115 2 37.2493 17.4121 1.31567 12.011 0.01762
2170 115 2 38.5408 18.2309 1.37381 12.011 -0.23743
2171 115 2 39.7336 17.3381 1.12958 12.011 -0.24423
2172 115 3 34.7814 19.6085 2.83932 12.011 -0.1837
2173 115 3 34.7777 20.9185 2.99812 12.011 -0.23415
2174 115 1 35.724 21.4402 3.06788 1.008 0.12909
2175 115 1 33.8657 21.496 3.06629 1.008 0.12909
2176 115 1 33.8619 19.0358 2.75945 1.008 0.15086
2177 115 1 36.8804 19.5762 2.81399 1.008 0.07222
2178 115 1 36.1438 18.178 3.61402 1.008 0.07222
2179 115 1 37.2809 16.6112 2.05543 1.008 0.09202
2180 115 1 37.1465 16.9426 0.336807 1.008 0.09202
2181 115 1 38.6798 18.6485 2.3685 1.008 0.10167
2182 115 1 38.5413 19.0453 0.64876 1.008 0.10167
2183 115 1 40.6049 17.7647 1.62119 1.008 0.08773
2184 115 1 39.5464 16.3576 1.56181 1.008 0.08773
2185 115 1 39.924 17.2404 0.0626275 1.008 0.08773
2186 116 4 36.1063 34.2398 33.1776 15.999 -0.35515
2187 116 2 37.0856 35.0472 33.776 12.011 0.03297
2188 116 2 36.6046 33.3071 32.2628 12.011 0.01762
2189 116 2 37.3296 33.9704 31.0996 12.011 -0.23743
2190 116 2 37.8241 32.924 30.136 12.011 -0.24423
2191 116 3 36.4186 35.9614 34.7627 12.011 -0.1837
2192 116 3 36.4827 37.2731 34.6267 12.011 -0.23415
2193 116 1 37.0354 37.693 33.7976 1.008 0.12909
2194 116 1 35.9998 37.9568 35.312 1.008 0.12909
2195 116 1 35.8525 35.4954 35.567 1.008 0.15086
2196 116 1 37.5464 35.6787 33.0204 1.008 0.07222
2197 116 1 37.8551 34.4885 34.297 1.008 0.07222
2198 116 1 37.2661 32.617 32.7803 1.008 0.09202
2199 116 1 35.7485 32.7392 31.9025 1.008 0.09202
2200 116 1 38.2108 34.4943 31.4584 1.008 0.10167
2201 116 1 36.6893 34.6755 30.5714 1.008 0.10167
2202 116 1 38.6954 33.2937 29.6104 1.008 0.08773
2203 116 1 38.1284 32.0433 30.6897 1.008 0.08773
2204 116 1 37.0508 32.6675 29.4164 1.008 0.08773
2205 117 4 27.9104 9.43415 26.6953 15.999 -0.35515
2206 117 2 27.3055 9.5458 27.9587 12.011 0.03297
2207 117 2 28.2307 10.678 26.1209 12.011 0.01762
2208 117 2 27.0076 11.5677 25.9153 12.011 -0.23743
2209 117 2 27.4112 12.87 25.2683 12.011 -0.24423
2210 117 3 27.0683 8.15398 28.4599 12.011 -0.1837
2211 117 3 25.8522 7.74648 28.7511 12.011 -0.23415
2212 117 1 25.0371 8.44732 28.618 1.008 0.12909
2213 117 1 25.6292 6.7509 29.114 1.008 0.12909
2214 117 1 27.9246 7.50316 28.5724 1.008 0.15086
2215 117 1 26.3334 10.0312 27.8698 1.008 0.07222
2216 117 1 27.8947 10.0813 28.6986 1.008 0.07222
2217 117 1 28.9613 11.1991 26.7361 1.008 0.09202
2218 117 1 28.7081 10.4673 25.1639 1.008 0.09202
2219 117 1 26.5586 11.8323 26.8694 1.008 0.10167
2220 117 1 26.2552 11.0752 25.3025 1.008 0.10167
2221 117 1 26.7044 13.6478 25.5464 1.008 0.08773
2222 117 1 28.3926 13.1618 25.6301 1.008 0.08773
2223 117 1 27.4369 12.7692 24.1853 1.008 0.08773
2224 118 4 8.85178 20.5561 8.72797 15.999 -0.35515
2225 118 2 7.45177 20.6713 8.78608 12.011 0.03297
2226 118 2 9.52199 21.6942 9.21439 12.011 0.01762
2227 118 2 9.18554 22.959 8.42243 12.011 -0.23743
2228 118 2 9.95753 24.1337 8.97291 12.011 -0.24423
2229 118 3 6.8757 19.3809 8.28183 12.011 -0.1837
2230 118 3 6.08315 19.3621 7.2266 12.011 -0.23415
2231 118 1 5.84748 20.2921 6.72141 1.008 0.12909
2232 118 1 5.65115 18.4461 6.84629 1.008 0.12909
2233 118 1 7.13938 18.4741 8.81801 1.008 0.15086
2234 118 1 7.11446 21.4576 8.11065 1.008 0.07222
2235 118 1 7.05326 20.8695 9.78002 1.008 0.07222
2236 118 1 9.28803 21.8424 10.2692 1.008 0.09202
2237 118 1 10.5895 21.4808 9.1473 1.008 0.09202
2238 118 1 8.13437 23.2122 8.53637 1.008 0.10167
2239 118 1 9.40496 22.844 7.36015 1.008 0.10167
2240 118 1 9.405 25.0489 8.77494 1.008 0.08773
2241 118 1 10.0591 24.0313 10.0499 1.008 0.08773
2242 118 1 10.9426 24.1908 8.51204 1.008 0.08773
2243 119 4 14.8746 14.422 13.6 15.999 -0.35515
2244 119 2 15.4607 15.4362 14.3744 12.011 0.03297
2245 119 2 15.7422 13.3675 13.2614 12.011 0.01762
2246 119 2 16.8924 13.8414 12.3991 12.011 -0.23743
2247 119 2 17.7843 12.6976 12.0185 12.011 -0.24423
2248 119 3 14.4077 16.4497 14.7545 12.011 -0.1837
2249 119 3 14.4882 17.6955 14.3466 12.011 -0.23415
2250 119 1 15.3222 17.9808 13.7096 1.008 0.12909
2251 119 1 13.7176 18.4341 14.53 1.008 0.12909
2252 119 1 13.5479 16.0837 15.3072 1.008 0.15086
2253 119 1 16.1904 15.9445 13.7495 1.008 0.07222
2254 119 1 15.9424 15.0959 15.2817 1.008 0.07222
2255 119 1 16.1232 12.8921 14.163 1.008 0.09202
2256 119 1 15.1509 12.6264 12.7193 1.008 0.09202
2257 119 1 17.502 14.5571 12.9424 1.008 0.10167
2258 119 1 16.5244 14.3015 11.4935 1.008 0.10167
2259 119 1 18.7848 13.0785 11.8348 1.008 0.08773
2260 119 1 17.8256 11.997 12.8457 1.008 0.08773
2261 119 1 17.4055 12.2022 11.1268 1.008 0.08773
2262 120 4 14.7045 32.2622 17.9939 15.999 -0.35515
2263 120 2 15.5683 33.3596 18.1494 12.011 0.03297
2264 120 2 13.7264 32.4587 17.0014 12.011 0.01762
2265 120 2 12.8158 33.6503 17.3018 12.011 -0.23743
2266 120 2 11.7713 33.7911 16.2212 12.011 -0.24423
2267 120 3 16.5746 32.9933 19.2024 12.011 -0.1837
2268 120 3 16.685 33.704 20.309 12.011 -0.23415
2269 120 1 16.0365 34.5611 20.4548 1.008 0.12909
2270 120 1 17.4035 33.4698 21.0832 1.008 0.12909
2271 120 1 17.1981 32.1241 19.009 1.008 0.15086
2272 120 1 15.0128 34.2194 18.5239 1.008 0.07222
2273 120 1 16.0957 33.6514 17.2427 1.008 0.07222
2274 120 1 14.2028 32.5883 16.0295 1.008 0.09202
2275 120 1 13.14 31.5405 16.9533 1.008 0.09202
2276 120 1 13.3847 34.577 17.2894 1.008 0.10167
2277 120 1 12.3251 33.5554 18.2711 1.008 0.10167
2278 120 1 11.4618 34.8318 16.1572 1.008 0.08773
2279 120 1 12.2001 33.5056 15.2633 1.008 0.08773
2280 120 1 10.9091 33.1636 16.4396 1.008 0.08773
2281 121 4 27.4174 6.11823 7.17254 15.999 -0.35515
2282 121 2 26.8646 5.66089 8.38118 12.011 0.03297
2283 121 2 28.3988 7.10994 7.3534 12.011 0.01762
2284 121 2 27.8525 8.36107 8.03902 12.011 -0.23743
2285 121 2 28.941 9.39805 8.16968 12.011 -0.24423
2286 121 3 25.8735 4.58455 8.044 12.011 -0.1837
2287 121 3 24.6012 4.70931 8.37396 12.011 -0.23415
2288 121 1 24.2703 5.60069 8.89577 1.008 0.12909
2289 121 1 23.8617 3.95055 8.15313 1.008 0.12909
2290 121 1 26.2508 3.7099 7.52026 1.008 0.15086
2291 121 1 26.31 6.46627 8.86265 1.008 0.07222
2292 121 1 27.5893 5.26359 9.09026 1.008 0.07222
2293 121 1 29.2391 6.7056 7.91698 1.008 0.09202
2294 121 1 28.7757 7.36694 6.36565 1.008 0.09202
2295 121 1 27.5367 8.12817 9.05265 1.008 0.10167
2296 121 1 27.0071 8.78642 7.49758 1.008 0.10167
2297 121 1 28.7256 10.0334 9.02557 1.008 0.08773
2298 121 1 29.8938 8.90346 8.34565 1.008 0.08773
2299 121 1 29 10.0034 7.26709 1.008 0.08773
2300 122 4 13.463 10.7828 15.9454 15.999 -0.35515
2301 122 2 14.1096 10.3591 14.7818 12.011 0.03297
2302 122 2 12.4585 11.7411 15.7362 12.011 0.01762
2303 122 2 13.0105 13.0214 15.1534 12.011 -0.23743
2304 122 2 11.9194 14.0398 14.9541 12.011 -0.24423
2305 122 3 15.0973 9.2989 15.1703 12.011 -0.1837
2306 122 3 16.3882 9.46484 14.9495 12.011 -0.23415
2307 122 1 16.7326 10.3816 14.4857 1.008 0.12909
2308 122 1 17.1227 8.71389 15.2064 1.008 0.12909
2309 122 1 14.7008 8.40015 15.633 1.008 0.15086
2310 122 1 14.6755 11.1913 14.3839 1.008 0.07222
2311 122 1 13.4512 9.97482 14.0075 1.008 0.07222
2312 122 1 11.6802 11.3409 15.0885 1.008 0.09202
2313 122 1 12.0111 11.9569 16.7021 1.008 0.09202
2314 122 1 13.3833 12.806 14.1614 1.008 0.10167
2315 122 1 13.8118 13.4487 15.7587 1.008 0.10167
2316 122 1 12.1912 14.7031 14.1335 1.008 0.08773
2317 122 1 11.0008 13.5317 14.6817 1.008 0.08773
2318 122 1 11.7765 14.6157 15.8648 1.008 0.08773
2319 123 4 47.889 4.89463 47.2909 15.999 -0.35515
2320 123 2 48.2637 4.35185 48.5329 12.011 0.03297
2321 123 2 47.5894 3.91696 46.3249 12.011 0.01762
2322 123 2 48.7738 2.99649 46.0273 12.011 -0.23743
2323 123 2 48.3981 1.99164 44.9658 12.011 -0.24423
2324 123 3 48.515 5.50005 49.4674 12.011 -0.1837
2325 123 3 49.698 5.66904 50.0295 12.011 -0.23415
2326 123 1 50.4945 4.96661 49.8101 1.008 0.12909
2327 123 1 49.91 6.48362 50.7095 1.008 0.12909
2328 123 1 47.6875 6.17912 49.653 1.008 0.15086
2329 123 1 49.2042 3.80892 48.4354 1.008 0.07222
2330 123 1 47.5229 3.69047 48.9793 1.008 0.07222
2331 123 1 46.7338 3.32926 46.6517 1.008 0.09202
2332 123 1 47.2896 4.44965 45.4225 1.008 0.09202
2333 123 1 49.0349 2.4152 46.9084 1.008 0.10167
2334 123 1 49.6526 3.55496 45.7031 1.008 0.10167
2335 123 1 49.0021 1.09618 45.091 1.008 0.08773
2336 123 1 47.3558 1.71181 45.0869 1.008 0.08773
2337 123 1 48.5575 2.40857 43.9733 1.008 0.08773
2338 124 4 8.11628 14.4536 7.50095 15.999 -0.35515
2339 124 2 7.95391 14.1188 6.14681 12.011 0.03297
2340 124 2 9.19926 15.3225 7.7302 12.011 0.01762
2341 124 2 10.5381 14.7252 7.30025 12.011 -0.23743
2342 124 2 11.6533 15.6928 7.60126 12.011 -0.24423
2343 124 3 6.75227 13.2261 6.04452 12.011 -0.1837
2344 124 3 6.85836 12.0008 5.56866 12.011 -0.23415
2345 124 1 7.82487 11.635 5.2413 1.008 0.12909
2346 124 1 6.01064 11.341 5.47952 1.008 0.12909
2347 124 1 5.80431 13.6329 6.38237 1.008 0.15086
2348 124 1 8.80889 13.5362 5.81001 1.008 0.07222
2349 124 1 7.82242 14.9687 5.47927 1.008 0.07222
2350 124 1 9.03262 16.2705 7.21798 1.008 0.09202
2351 124 1 9.21056 15.5296 8.80041 1.008 0.09202
2352 124 1 10.5621 14.5774 6.22504 1.008 0.10167
2353 124 1 10.7403 13.7711 7.78769 1.008 0.10167
2354 124 1 12.4726 15.5181 6.91126 1.008 0.08773
2355 124 1 11.308 16.7126 7.46048 1.008 0.08773
2356 124 1 12.0116 15.5571 8.61674 1.008 0.08773
2357 125 4 29.3576 43.0622 3.04169 15.999 -0.35515
2358 125 2 30.1639 43.6032 4.05533 12.011 0.03297
2359 125 2 28.0167 42.8923 3.43307 12.011 0.01762
2360 125 2 27.8636 41.9459 4.61952 12.011 -0.23743
2361 125 2 26.4061 41.7724 4.97149 12.011 -0.24423
2362 125 3 31.5467 43.7705 3.49601 12.011 -0.1837
2363 125 3 32.5787 43.1516 4.04042 12.011 -0.23415
2364 125 1 32.4212 42.5155 4.9044 1.008 0.12909
2365 125 1 33.5864 43.2541 3.65997 1.008 0.12909
2366 125 1 31.6537 44.4161 2.62891 1.008 0.15086
2367 125 1 30.2395 42.897 4.88314 1.008 0.07222
2368 125 1 29.8216 44.5642 4.43844 1.008 0.07222
2369 125 1 27.571 43.8572 3.67176 1.008 0.09202
2370 125 1 27.4884 42.4932 2.5678 1.008 0.09202
2371 125 1 28.338 42.3678 5.50273 1.008 0.10167
2372 125 1 28.302 40.9701 4.41293 1.008 0.10167
2373 125 1 26.3127 41.5254 6.02619 1.008 0.08773
2374 125 1 25.8819 42.7085 4.79971 1.008 0.08773
2375 125 1 25.96 40.9812 4.37219 1.008 0.08773
2376 126 4 38.0757 32.5976 42.1744 15.999 -0.35515
2377 126 2 37.216 33.1828 41.2368 12.011 0.03297
2378 126 2 38.1056 33.2128 43.4309 12.011 0.01762
2379 126 2 38.5447 34.6698 43.3482 12.011 -0.23743
2380 126 2 38.5598 35.2763 44.7265 12.011 -0.24423
2381 126 3 37.2429 32.3887 39.9585 12.011 -0.1837
2382 126 3 37.6489 32.9487 38.8335 12.011 -0.23415
2383 126 1 37.9398 33.9936 38.8415 1.008 0.12909
2384 126 1 37.7383 32.4015 37.9044 1.008 0.12909
2385 126 1 37.0163 31.3276 40.0236 1.008 0.15086
2386 126 1 37.5688 34.1863 41.0076 1.008 0.07222
2387 126 1 36.1955 33.2165 41.5746 1.008 0.07222
2388 126 1 37.1203 33.1309 43.8816 1.008 0.09202
2389 126 1 38.797 32.6398 44.0502 1.008 0.09202
2390 126 1 37.8274 35.2467 42.771 1.008 0.10167
2391 126 1 39.5285 34.7807 42.8973 1.008 0.10167
2392 126 1 38.3916 36.3468 44.6451 1.008 0.08773
2393 126 1 37.7532 34.8497 45.3178 1.008 0.08773
2394 126 1 39.5138 35.0919 45.2151 1.008 0.08773
2395 127 4 7.6276 42.3003 21.234 15.999 -0.35515
2396 127 2 6.38433 42.8883 20.9383 12.011 0.03297
2397 127 2 8.35824 43.0079 22.2055 12.011 0.01762
2398 127 2 8.67649 44.4415 21.7794 12.011 -0.23743
2399 127 2 9.48813 45.1363 22.8443 12.011 -0.24423
2400 127 3 5.7017 42.0145 19.9252 12.011 -0.1837
2401 127 3 5.36198 42.4897 18.7409 12.011 -0.23415
2402 127 1 5.58343 43.5241 18.5011 1.008 0.12909
2403 127 1 4.86868 41.8872 17.9898 1.008 0.12909
2404 127 1 5.50828 40.984 20.2095 1.008 0.15086
2405 127 1 6.53264 43.8625 20.4714 1.008 0.07222
2406 127 1 5.72623 43.0095 21.7976 1.008 0.07222
2407 127 1 7.80999 43.0117 23.1468 1.008 0.09202
2408 127 1 9.28103 42.4505 22.3675 1.008 0.09202
2409 127 1 7.76152 45.0201 21.6753 1.008 0.10167
2410 127 1 9.22076 44.4707 20.8363 1.008 0.10167
2411 127 1 9.30804 46.2068 22.7917 1.008 0.08773
2412 127 1 9.16672 44.7946 23.8206 1.008 0.08773
2413 127 1 10.5482 44.9306 22.7133 1.008 0.08773
2414 128 4 25.5231 19.3129 25.203 15.999 -0.35515
2415 128 2 24.909 20.0461 26.2211 12.011 0.03297
2416 128 2 25.3406 19.8865 23.9356 12.011 0.01762
2417 128 2 23.8754 20.0025 23.5393 12.011 -0.23743
2418 128 2 23.7172 20.5695 22.1588 12.011 -0.24423
2419 128 3 25.2048 19.3063 27.4937 12.011 -0.1837
2420 128 3 24.2323 18.882 28.2758 12.011 -0.23415
2421 128 1 23.2006 19.0406 27.9813 1.008 0.12909
2422 128 1 24.4163 18.4251 29.2379 1.008 0.12909
2423 128 1 26.2494 19.2336 27.7874 1.008 0.15086
2424 128 1 23.8251 20.0462 26.1004 1.008 0.07222
2425 128 1 25.2408 21.0834 26.2986 1.008 0.07222
2426 128 1 25.8038 20.8685 23.9022 1.008 0.09202
2427 128 1 25.8679 19.2433 23.2356 1.008 0.09202
2428 128 1 23.3409 20.6799 24.1939 1.008 0.10167
2429 128 1 23.3962 19.036 23.5546 1.008 0.10167
2430 128 1 22.7726 21.0834 22.0521 1.008 0.08773
2431 128 1 24.4587 21.3304 22.0348 1.008 0.08773
2432 128 1 23.8178 19.7992 21.3954 1.008 0.08773
2433 129 4 22.3503 23.9402 27.3881 15.999 -0.35515
2434 129 2 21.9457 23.0553 26.379 12.011 0.03297
2435 129 2 23.6262 23.6486 27.8985 12.011 0.01762
2436 129 2 23.7045 22.2689 28.538 12.011 -0.23743
2437 129 2 25.0876 22.0545 29.1019 12.011 -0.24423
2438 129 3 20.5836 23.5208 25.9315 12.011 -0.1837
2439 129 3 19.5278 22.734 26.0331 12.011 -0.23415
2440 129 1 19.6604 21.7223 26.4114 1.008 0.12909
2441 129 1 18.5546 22.9973 25.639 1.008 0.12909
2442 129 1 20.5265 24.5075 25.479 1.008 0.15086
2443 129 1 21.8234 22.05 26.7855 1.008 0.07222
2444 129 1 22.6238 22.9975 25.5249 1.008 0.07222
2445 129 1 24.377 23.7481 27.1153 1.008 0.09202
2446 129 1 23.8478 24.4038 28.6458 1.008 0.09202
2447 129 1 23.5403 21.5093 27.7878 1.008 0.10167
2448 129 1 22.9653 22.1241 29.3224 1.008 0.10167
2449 129 1 25.3133 21.0061 29.1567 1.008 0.08773
2450 129 1 25.8298 22.5156 28.4573 1.008 0.08773
2451 129 1 25.1577 22.4234 30.1154 1.008 0.08773
2452 130 4 47.2481 34.4715 25.4565 15.999 -0.35515
2453 130 2 46.0801 34.1104 26.1525 12.011 0.03297
2454 130 2 47.7671 35.7154 25.8591 12.011 0.01762
2455 130 2 46.7826 36.8607 25.6318 12.011 -0.23743
2456 130 2 47.4076 38.1586 26.0485 12.011 -0.24423
2457 130 3 45.661 32.7575 25.6546 12.011 -0.1837
2458 130 3 44.4822 32.5761 25.0895 12.011 -0.23415
2459 130 1 43.8119 33.4215 24.9842 1.008 0.12909
2460 130 1 44.1524 31.6133 24.7227 1.008 0.12909
2461 130 1 46.3712 31.9478 25.7743 1.008 0.15086
2462 130 1 45.2718 34.8017 25.9129 1.008 0.07222
2463 130 1 46.1931 34.0684 27.2351 1.008 0.07222
2464 130 1 48.0588 35.6766 26.9093 1.008 0.09202
2465 130 1 48.6737 35.8798 25.2764 1.008 0.09202
2466 130 1 45.904 36.7452 26.2616 1.008 0.10167
2467 130 1 46.465 36.9375 24.5923 1.008 0.10167
2468 130 1 46.6181 38.8544 26.3237 1.008 0.08773
2469 130 1 48.0581 37.9915 26.9016 1.008 0.08773
2470 130 1 47.9922 38.5836 25.248 1.008 0.08773
2471 131 4 2.5612 21.1228 47.5954 15.999 -0.35515
2472 131 2 3.52513 21.5368 46.6602 12.011 0.03297
2473 131 2 1.60871 22.1095 47.9012 12.011 0.01762
2474 131 2 2.21636 23.403 48.4482 12.011 -0.23743
2475 131 2 1.13045 24.3972 48.763 12.011 -0.24423
2476 131 3 4.46664 20.3875 46.4412 12.011 -0.1837
2477 131 3 5.76046 20.5158 46.6738 12.011 -0.23415
2478 131 1 6.14445 21.4641 47.0307 1.008 0.12909
2479 131 1 6.46431 19.7082 46.5201 1.008 0.12909
2480 131 1 4.03596 19.4549 46.0882 1.008 0.15086
2481 131 1 4.11977 22.3622 47.0545 1.008 0.07222
2482 131 1 3.10062 21.8336 45.7052 1.008 0.07222
2483 131 1 1.03043 22.3231 47.0053 1.008 0.09202
2484 131 1 0.931014 21.6717 48.6347 1.008 0.09202
2485 131 1 2.85588 23.8708 47.7059 1.008 0.10167
2486 131 1 2.79938 23.2389 49.3464 1.008 0.10167
2487 131 1 1.535 25.403 48.6866 1.008 0.08773
2488 131 1 0.336886 24.2905 48.0311 1.008 0.08773
2489 131 1 0.735858 24.2329 49.7641 1.008 0.08773
2490 132 4 38.6706 27.7513 6.76336 15.999 -0.35515
2491 132 2 38.2802 28.111 5.46311 12.011 0.03297
2492 132 2 39.8584 26.9981 6.7951 12.011 0.01762
2493 132 2 39.7463 25.6843 6.02072 12.011 -0.23743
2494 132 2 41.0409 24.9179 6.12256 12.011 -0.24423
2495 132 3 37.028 28.9281 5.58818 12.011 -0.1837
2496 132 3 35.9074 28.5534 4.9999 12.011 -0.23415
2497 132 1 35.8946 27.6295 4.43448 1.008 0.12909
2498 132 1 34.9935 29.1284 5.06531 1.008 0.12909
2499 132 1 37.0915 29.841 6.17374 1.008 0.15086
2500 132 1 38.0234 27.2242 4.88519 1.008 0.07222
2501 132 1 39.03 28.6778 4.91361 1.008 0.07222
2502 132 1 40.6857 27.5912 6.40457 1.008 0.09202
2503 132 1 40.0722 26.7974 7.84523 1.008 0.09202
2504 132 1 39.598 25.8786 4.96107 1.008 0.10167
2505 132 1 38.9253 25.0641 6.38129 1.008 0.10167
2506 132 1 41.1523 24.2893 5.24353 1.008 0.08773
2507 132 1 41.8795 25.6078 6.13739 1.008 0.08773
2508 132 1 41.053 24.3032 7.02021 1.008 0.08773
2509 133 4 9.35238 2.93736 41.6831 15.999 -0.35515
2510 133 2 10.065 1.7285 41.8054 12.011 0.03297
2511 133 2 8.01319 2.87143 42.1084 12.011 0.01762
2512 133 2 7.19047 1.91863 41.2813 12.011 -0.23743
2513 133 2 5.75653 1.87923 41.7849 12.011 -0.24423
2514 133 3 11.475 2.00298 41.3714 12.011 -0.1837
2515 133 3 12.0086 1.35179 40.3552 12.011 -0.23415
2516 133 1 11.4156 0.610419 39.8308 1.008 0.12909
2517 133 1 13.0231 1.52389 40.0213 1.008 0.12909
2518 133 1 12.0237 2.75903 41.9269 1.008 0.15086
2519 133 1 9.6606 0.9833 41.1185 1.008 0.07222
2520 133 1 10.0785 1.30824 42.8098 1.008 0.07222
2521 133 1 7.95884 2.56775 43.1547 1.008 0.09202
2522 133 1 7.561 3.84559 41.997 1.008 0.09202
2523 133 1 7.68469 1.04452 41.5992 1.008 0.10167
2524 133 1 7.24937 2.03528 40.194 1.008 0.10167
2525 133 1 5.12832 1.03276 41.5982 1.008 0.08773
2526 133 1 5.75273 1.95435 42.8671 1.008 0.08773
2527 133 1 5.17551 2.61076 41.2433 1.008 0.08773
2528 134 4 41.1775 40.3903 30.0693 15.999 -0.35515
2529 134 2 42.5184 40.5799 30.4371 12.011 0.03297
2530 134 2 41.0211 39.4885 29.0021 12.011 0.01762
2531 134 2 41.7381 39.913 27.7294 12.011 -0.23743
2532 134 2 41.4981 38.9026 26.6332 12.011 -0.24423
2533 134 3 42.537 41.5308 31.5965 12.011 -0.1837
2534 134 3 43.1787 42.6775 31.5179 12.011 -0.23415
2535 134 1 43.6938 42.9148 30.6059 1.008 0.12909
2536 134 1 43.2266 43.3931 32.3236 1.008 0.12909
2537 134 1 42.0011 41.2392 32.4916 1.008 0.15086
2538 134 1 43.072 41.041 29.6239 1.008 0.07222
2539 134 1 43.0415 39.6761 30.7171 1.008 0.07222
2540 134 1 41.3957 38.5154 29.2938 1.008 0.09202
2541 134 1 39.9499 39.3964 28.8269 1.008 0.09202
2542 134 1 42.8117 39.9278 27.8925 1.008 0.10167
2543 134 1 41.4113 40.8968 27.4008 1.008 0.10167
2544 134 1 42.3319 38.9323 25.936 1.008 0.08773
2545 134 1 41.4478 37.9036 27.0629 1.008 0.08773
2546 134 1 40.5706 39.1258 26.1099 1.008 0.08773
2547 135 4 39.4322 13.685 18.0121 15.999 -0.35515
2548 135 2 38.9518 14.3344 16.8613 12.011 0.03297
2549 135 2 38.4089 13.1016 18.7831 12.011 0.01762
2550 135 2 37.3864 14.125 19.2824 12.011 -0.23743
2551 135 2 36.3349 13.4426 20.1233 12.011 -0.24423
2552 135 3 40.1295 14.8725 16.1128 12.011 -0.1837
2553 135 3 40.2577 16.1644 15.8777 12.011 -0.23415
2554 135 1 39.4978 16.8457 16.2367 1.008 0.12909
2555 135 1 41.1064 16.5854 15.3526 1.008 0.12909
2556 135 1 40.8695 14.1469 15.7928 1.008 0.15086
2557 135 1 38.3385 15.1905 17.1381 1.008 0.07222
2558 135 1 38.3891 13.7001 16.1832 1.008 0.07222
2559 135 1 37.9091 12.3237 18.2075 1.008 0.09202
2560 135 1 38.8927 12.6108 19.6276 1.008 0.09202
2561 135 1 36.8554 14.5728 18.4443 1.008 0.10167
2562 135 1 37.8579 14.9199 19.8616 1.008 0.10167
2563 135 1 35.4122 14.016 20.0721 1.008 0.08773
2564 135 1 36.1424 12.4497 19.7243 1.008 0.08773
2565 135 1 36.6669 13.3679 21.1573 1.008 0.08773
2566 136 4 25.4788 1.02158 20.3216 15.999 -0.35515
2567 136 2 25.8977 2.20363 19.6858 12.011 0.03297
2568 136 2 24.0884 0.974488 20.5406 12.011 0.01762
2569 136 2 23.5915 2.10959 21.4359 12.011 -0.23743
2570 136 2 22.1039 1.98822 21.6574 12.011 -0.24423
2571 136 3 27.3808 2.10148 19.4804 12.011 -0.1837
2572 136 3 28.2022 2.98601 20.0178 12.011 -0.23415
2573 136 1 27.7948 3.7939 20.6144 1.008 0.12909
2574 136 1 29.275 2.93928 19.8857 1.008 0.12909
2575 136 1 27.741 1.2719 18.8794 1.008 0.15086
2576 136 1 25.7265 3.05603 20.3414 1.008 0.07222
2577 136 1 25.4202 2.39712 18.7262 1.008 0.07222
2578 136 1 23.5593 0.993274 19.5874 1.008 0.09202
2579 136 1 23.8774 0.0130136 21.0085 1.008 0.09202
2580 136 1 23.7366 3.06656 20.946 1.008 0.10167
2581 136 1 24.1032 2.13072 22.3976 1.008 0.10167
2582 136 1 21.6906 2.9763 21.8497 1.008 0.08773
2583 136 1 21.635 1.59637 20.758 1.008 0.08773
2584 136 1 21.8979 1.33097 22.499 1.008 0.08773
2585 137 4 50.132 9.37573 29.4325 15.999 -0.35515
2586 137 2 49.3351 9.57256 28.2941 12.011 0.03297
2587 137 2 50.294 10.5321 30.211 12.011 0.01762
2588 137 2 50.9183 11.705 29.4627 12.011 -0.23743
2589 137 2 51.0447 12.9076 30.3692 12.011 -0.24423
2590 137 3 49.264 8.25456 27.584 12.011 -0.1837
2591 137 3 49.6921 8.12911 26.3422 12.011 -0.23415
2592 137 1 50.1085 8.99245 25.8361 1.008 0.12909
2593 137 1 49.6443 7.194 25.7997 1.008 0.12909
2594 137 1 48.8421 7.41768 28.1344 1.008 0.15086
2595 137 1 49.8158 10.2763 27.616 1.008 0.07222
2596 137 1 48.3242 9.91611 28.4944 1.008 0.07222
2597 137 1 49.3401 10.8019 30.6044 1.008 0.09202
2598 137 1 50.8756 10.2769 31.0874 1.008 0.09202
2599 137 1 50.2903 12.0112 28.6336 1.008 0.10167
2600 137 1 51.8908 11.4367 29.0677 1.008 0.10167
2601 137 1 51.0303 13.8115 29.7632 1.008 0.08773
2602 137 1 50.2009 12.9416 31.0551 1.008 0.08773
2603 137 1 -0.0202068 12.855 30.9414 1.008 0.08773
2604 138 4 40.8431 7.63489 21.3146 15.999 -0.35515
2605 138 2 41.8446 8.48052 20.8054 12.011 0.03297
2606 138 2 39.5485 8.17282 21.2004 12.011 0.01762
2607 138 2 39.3898 9.48917 21.9613 12.011 -0.23743
2608 138 2 37.9764 10.001 21.8275 12.011 -0.24423
2609 138 3 43.1575 7.76634 20.9517 12.011 -0.1837
2610 138 3 44.1334 8.28567 21.6737 12.011 -0.23415
2611 138 1 43.9789 9.23776 22.1682 1.008 0.12909
2612 138 1 45.0894 7.7951 21.8007 1.008 0.12909
2613 138 1 43.2598 6.81001 20.4465 1.008 0.15086
2614 138 1 41.9064 9.38804 21.4063 1.008 0.07222
2615 138 1 41.7122 8.76036 19.7614 1.008 0.07222
2616 138 1 39.2971 8.3164 20.1493 1.008 0.09202
2617 138 1 38.8635 7.42395 21.5984 1.008 0.09202
2618 138 1 40.0259 10.2561 21.5258 1.008 0.10167
2619 138 1 39.6373 9.38424 23.0175 1.008 0.10167
2620 138 1 37.9773 11.0842 21.9291 1.008 0.08773
2621 138 1 37.594 9.75148 20.8407 1.008 0.08773
2622 138 1 37.3387 9.56033 22.5925 1.008 0.08773
2623 139 4 29.5815 43.7715 28.1632 15.999 -0.35515
2624 139 2 28.9925 44.0071 29.4103 12.011 0.03297
2625 139 2 30.9111 43.3377 28.2161 12.011 0.01762
2626 139 2 31.8107 44.3765 28.8703 12.011 -0.23743
2627 139 2 33.2362 43.8929 28.8744 12.011 -0.24423
2628 139 3 27.5592 44.3905 29.1806 12.011 -0.1837
2629 139 3 27.1076 45.5653 29.5781 12.011 -0.23415
2630 139 1 27.7854 46.2514 30.0736 1.008 0.12909
2631 139 1 26.0813 45.8745 29.4359 1.008 0.12909
2632 139 1 26.9165 43.672 28.6808 1.008 0.15086
2633 139 1 29.4854 44.8525 29.8811 1.008 0.07222
2634 139 1 29.0242 43.1669 30.0915 1.008 0.07222
2635 139 1 30.9791 42.3885 28.7413 1.008 0.09202
2636 139 1 31.2171 43.1582 27.1859 1.008 0.09202
2637 139 1 31.5303 44.5232 29.909 1.008 0.10167
2638 139 1 31.7569 45.332 28.3567 1.008 0.10167
2639 139 1 33.7747 44.3665 29.6849 1.008 0.08773
2640 139 1 33.2526 42.8161 29.0341 1.008 0.08773
2641 139 1 33.74 44.1483 27.9482 1.008 0.08773
2642 140 4 33.295 34.6135 35.8428 15.999 -0.35515
2643 140 2 33.2897 35.1755 34.5551 12.011 0.03297
2644 140 2 33.5153 33.2233 35.8372 12.011 0.01762
2645 140 2 32.4478 32.459 35.0516 12.011 -0.23743
2646 140 2 32.7158 30.9757 35.1184 12.011 -0.24423
2647 140 3 33.1036 36.6546 34.7023 12.011 -0.1837
2648 140 3 32.082 37.2622 34.1349 12.011 -0.23415
2649 140 1 31.3782 36.676 33.5577 1.008 0.12909
2650 140 1 31.9182 38.3263 34.2226 1.008 0.12909
2651 140 1 33.8377 37.1928 35.2907 1.008 0.15086
2652 140 1 32.4647 34.7931 33.9638 1.008 0.07222
2653 140 1 34.185 35.0015 33.9844 1.008 0.07222
2654 140 1 34.5049 32.9997 35.4369 1.008 0.09202
2655 140 1 33.5117 32.9074 36.8799 1.008 0.09202
2656 140 1 32.4948 32.7225 33.9977 1.008 0.10167
2657 140 1 31.4426 32.6645 35.4195 1.008 0.10167
2658 140 1 32.3009 30.4964 34.234 1.008 0.08773
2659 140 1 33.7891 30.8013 35.1263 1.008 0.08773
2660 140 1 32.2679 30.5482 36.0125 1.008 0.08773
2661 141 4 45.724 42.6494 29.3628 15.999 -0.35515
2662 141 2 45.6705 41.6146 28.4157 12.011 0.03297
2663 141 2 45.225 43.8744 28.8787 12.011 0.01762
2664 141 2 46.012 44.3897 27.6802 12.011 -0.23743
2665 141 2 45.4486 45.7037 27.2182 12.011 -0.24423
2666 141 3 46.1831 40.3784 29.089 12.011 -0.1837
2667 141 3 47.2576 39.7608 28.639 12.011 -0.23415
2668 141 1 47.7532 40.1534 27.7574 1.008 0.12909
2669 141 1 47.6382 38.8459 29.0736 1.008 0.12909
2670 141 1 45.6474 40.0221 29.9582 1.008 0.15086
2671 141 1 46.3453 41.8381 27.5912 1.008 0.07222
2672 141 1 44.6809 41.4149 28.0104 1.008 0.07222
2673 141 1 44.1712 43.7718 28.6142 1.008 0.09202
2674 141 1 45.2802 44.5826 29.7076 1.008 0.09202
2675 141 1 45.9033 43.7167 26.836 1.008 0.10167
2676 141 1 47.071 44.5037 27.9111 1.008 0.10167
2677 141 1 45.6565 45.8471 26.1645 1.008 0.08773
2678 141 1 44.372 45.7209 27.3666 1.008 0.08773
2679 141 1 45.9183 46.5007 27.7715 1.008 0.08773
2680 142 4 38.1062 16.9999 46.7953 15.999 -0.35515
2681 142 2 38.9415 17.5542 47.7805 12.011 0.03297
2682 142 2 37.7236 15.6737 47.0701 12.011 0.01762
2683 142 2 38.9188 14.7245 47.1687 12.011 -0.23743
2684 142 2 38.4449 13.3164 47.4315 12.011 -0.24423
2685 142 3 39.2304 18.9728 47.3813 12.011 -0.1837
2686 142 3 40.469 19.3759 47.1703 12.011 -0.23415
2687 142 1 41.2773 18.6672 47.29 1.008 0.12909
2688 142 1 40.7164 20.3882 46.8835 1.008 0.12909
2689 142 1 38.3803 19.6398 47.273 1.008 0.15086
2690 142 1 39.8943 17.025 47.7987 1.008 0.07222
2691 142 1 38.5191 17.5504 48.784 1.008 0.07222
2692 142 1 37.1418 15.6379 47.9913 1.008 0.09202
2693 142 1 37.0629 15.3641 46.2595 1.008 0.09202
2694 142 1 39.5493 14.9916 48.0129 1.008 0.10167
2695 142 1 39.5195 14.7343 46.2611 1.008 0.10167
2696 142 1 39.2244 12.7688 47.9554 1.008 0.08773
2697 142 1 37.5631 13.3454 48.0674 1.008 0.08773
2698 142 1 38.2061 12.8133 46.4964 1.008 0.08773
2699 143 4 31.6661 46.778 7.17445 15.999 -0.35515
2700 143 2 31.7945 45.6168 7.95609 12.011 0.03297
2701 143 2 32.6193 47.7646 7.48962 12.011 0.01762
2702 143 2 32.5196 48.237 8.94143 12.011 -0.23743
2703 143 2 33.5435 49.3138 9.20913 12.011 -0.24423
2704 143 3 30.7526 44.6482 7.4894 12.011 -0.1837
2705 143 3 29.8251 44.1969 8.30751 12.011 -0.23415
2706 143 1 29.8221 44.5352 9.33762 1.008 0.12909
2707 143 1 29.0658 43.4944 7.99298 1.008 0.12909
2708 143 1 30.8033 44.3408 6.45743 1.008 0.15086
2709 143 1 31.5721 45.8413 8.99782 1.008 0.07222
2710 143 1 32.7695 45.1363 7.89962 1.008 0.07222
2711 143 1 33.6235 47.3909 7.28655 1.008 0.09202
2712 143 1 32.4425 48.599 6.80995 1.008 0.09202
2713 143 1 32.7581 47.4239 9.62321 1.008 0.10167
2714 143 1 31.525 48.6145 9.18007 1.008 0.10167
2715 143 1 33.8029 49.305 10.2654 1.008 0.08773
2716 143 1 34.4444 49.1061 8.63585 1.008 0.08773
2717 143 1 33.1496 50.2909 8.93451 1.008 0.08773
2718 144 4 17.5917 7.1832 32.8131 15.999 -0.35515
2719 144 2 17.5787 7.00972 31.4219 12.011 0.03297
2720 144 2 17.5879 8.5359 33.2001 12.011 0.01762
2721 144 2 18.8136 9.29651 32.7012 12.011 -0.23743
2722 144 2 18.7685 10.7335 33.1624 12.011 -0.24423
2723 144 3 17.5317 5.53542 31.1413 12.011 -0.1837
2724 144 3 18.4875 4.95039 30.4451 12.011 -0.23415
2725 144 1 19.3088 5.55054 30.0683 1.008 0.12909
2726 144 1 18.484 3.89172 30.2253 1.008 0.12909
2727 144 1 16.6826 4.98606 31.5357 1.008 0.15086
2728 144 1 18.4931 7.39558 30.971 1.008 0.07222
2729 144 1 16.733 7.49277 30.9496 1.008 0.07222
2730 144 1 16.674 9.02362 32.859 1.008 0.09202
2731 144 1 17.5761 8.54559 34.2879 1.008 0.09202
2732 144 1 18.8256 9.31263 31.6255 1.008 0.10167
2733 144 1 19.7497 8.83573 33.001 1.008 0.10167
2734 144 1 19.3085 11.3602 32.4561 1.008 0.08773
2735 144 1 17.7357 11.0722 33.1979 1.008 0.08773
2736 144 1 19.221 10.8171 34.1471 1.008 0.08773
2737 145 4 20.305 3.91413 2.4537 15.999 -0.35515
2738 145 2 20.6786 3.34179 3.68203 12.011 0.03297
2739 145 2 20.0833 5.29951 2.53448 12.011 0.01762
2740 145 2 18.9694 5.6607 3.51171 12.011 -0.23743
2741 145 2 18.7694 7.14728 3.52651 12.011 -0.24423
2742 145 3 20.9155 1.87883 3.44007 12.011 -0.1837
2743 145 3 20.2107 0.963933 4.08085 12.011 -0.23415
2744 145 1 19.4518 1.27908 4.78863 1.008 0.12909
2745 145 1 20.359 51.8888 3.93031 1.008 0.12909
2746 145 1 21.6828 1.61522 2.71761 1.008 0.15086
2747 145 1 19.8573 3.41914 4.39469 1.008 0.07222
2748 145 1 21.572 3.77405 4.12994 1.008 0.07222
2749 145 1 21.0027 5.80084 2.82739 1.008 0.09202
2750 145 1 19.8302 5.63988 1.52984 1.008 0.09202
2751 145 1 19.2448 5.39367 4.52828 1.008 0.10167
2752 145 1 18.0263 5.17782 3.25845 1.008 0.10167
2753 145 1 18.3707 7.44241 4.49324 1.008 0.08773
2754 145 1 19.7187 7.65835 3.39473 1.008 0.08773
2755 145 1 18.0792 7.45147 2.74008 1.008 0.08773
2756 146 4 27.2451 36.5328 6.84057 15.999 -0.35515
2757 146 2 28.199 35.6941 7.44115 12.011 0.03297
2758 146 2 27.7954 37.7256 6.3377 12.011 0.01762
2759 146 2 28.4514 38.5616 7.41985 12.011 -0.23743
2760 146 2 28.9926 39.8473 6.84994 12.011 -0.24423
2761 146 3 27.4858 34.4481 7.8724 12.011 -0.1837
2762 146 3 27.4771 34.0851 9.13863 12.011 -0.23415
2763 146 1 27.9777 34.7029 9.87531 1.008 0.12909
2764 146 1 26.9751 33.1906 9.47656 1.008 0.12909
2765 146 1 26.9864 33.8638 7.10624 1.008 0.15086
2766 146 1 28.5984 36.1637 8.34035 1.008 0.07222
2767 146 1 29.029 35.4141 6.79467 1.008 0.07222
2768 146 1 28.5241 37.5118 5.56032 1.008 0.09202
2769 146 1 26.9781 38.2852 5.88378 1.008 0.09202
2770 146 1 29.3025 38.0505 7.86087 1.008 0.10167
2771 146 1 27.7292 38.779 8.19793 1.008 0.10167
2772 146 1 29.8284 40.204 7.43931 1.008 0.08773
2773 146 1 29.368 39.6633 5.85145 1.008 0.08773
2774 146 1 28.2185 40.6063 6.84752 1.008 0.08773
2775 147 4 40.2655 18.8997 8.71343 15.999 -0.35515
2776 147 2 39.8211 19.2099 10.0099 12.011 0.03297
2777 147 2 41.2351 17.8784 8.68888 12.011 0.01762
2778 147 2 42.491 18.2482 9.47926 12.011 -0.23743
2779 147 2 43.5029 17.1464 9.38698 12.011 -0.24423
2780 147 3 38.7712 20.2754 9.87877 12.011 -0.1837
2781 147 3 38.9256 21.4517 10.4584 12.011 -0.23415
2782 147 1 39.8228 21.6441 11.0365 1.008 0.12909
2783 147 1 38.1854 22.2371 10.3904 1.008 0.12909
2784 147 1 37.8906 20.0333 9.29034 1.008 0.15086
2785 147 1 40.6381 19.6355 10.5929 1.008 0.07222
2786 147 1 39.403 18.3667 10.5576 1.008 0.07222
2787 147 1 40.8116 16.9505 9.07348 1.008 0.09202
2788 147 1 41.4865 17.7074 7.6412 1.008 0.09202
2789 147 1 42.266 18.3532 10.5359 1.008 0.10167
2790 147 1 42.9489 19.1642 9.12267 1.008 0.10167
2791 147 1 44.1408 17.1539 10.2608 1.008 0.08773
2792 147 1 42.9666 16.2078 9.38244 1.008 0.08773
2793 147 1 44.1135 17.2332 8.48986 1.008 0.08773
2794 148 4 44.6271 32.1508 44.8617 15.999 -0.35515
2795 148 2 43.5153 32.7953 44.2945 12.011 0.03297
2796 148 2 45.5343 31.6637 43.9005 12.011 0.01762
2797 148 2 44.9025 30.6342 42.9635 12.011 -0.23743
2798 148 2 45.928 30.1226 41.9821 12.011 -0.24423
2799 148 3 42.6637 33.2994 45.4226 12.011 -0.1837
2800 148 3 41.4161 32.891 45.5637 12.011 -0.23415
2801 148 1 41.0086 32.1835 44.8527 1.008 0.12909
2802 148 1 40.7769 33.2377 46.364 1.008 0.12909
2803 148 1 43.1217 34.0029 46.1121 1.008 0.15086
2804 148 1 42.9166 32.0792 43.7343 1.008 0.07222
2805 148 1 43.7632 33.6284 43.6424 1.008 0.07222
2806 148 1 45.9455 32.4897 43.3197 1.008 0.09202
2807 148 1 46.3605 31.2113 44.4504 1.008 0.09202
2808 148 1 44.1218 31.0929 42.3618 1.008 0.10167
2809 148 1 44.4757 29.7964 43.5113 1.008 0.10167
2810 148 1 45.424 29.8012 41.0723 1.008 0.08773
2811 148 1 46.6088 30.9285 41.7185 1.008 0.08773
2812 148 1 46.4863 29.2917 42.4085 1.008 0.08773
2813 149 4 45.0507 1.64198 35.8553 15.999 -0.35515
2814 149 2 44.1845 2.21529 34.9343 12.011 0.03297
2815 149 2 45.8714 2.60558 36.4455 12.011 0.01762
2816 149 2 46.7509 3.33315 35.4307 12.011 -0.23743
2817 149 2 47.6409 4.32136 36.1446 12.011 -0.24423
2818 149 3 43.2508 1.18302 34.4489 12.011 -0.1837
2819 149 3 43.0145 1.11297 33.2522 12.011 -0.23415
2820 149 1 43.7854 1.48613 32.5432 1.008 0.12909
2821 149 1 42.3014 52.3581 32.9406 1.008 0.12909
2822 149 1 42.6822 0.53506 35.1481 1.008 0.15086
2823 149 1 44.714 2.60027 34.0454 1.008 0.07222
2824 149 1 43.5067 2.98586 35.2951 1.008 0.07222
2825 149 1 45.2598 3.3185 36.995 1.008 0.09202
2826 149 1 46.479 2.06448 37.1625 1.008 0.09202
2827 149 1 46.1457 3.9203 34.7428 1.008 0.10167
2828 149 1 47.3649 2.64331 34.8504 1.008 0.10167
2829 149 1 47.8935 5.13087 35.4629 1.008 0.08773
2830 149 1 47.1045 4.74483 36.9906 1.008 0.08773
2831 149 1 48.5503 3.83366 36.4898 1.008 0.08773
2832 150 4 43.8999 29.1118 33.5271 15.999 -0.35515
2833 150 2 44.9517 30.0031 33.29 12.011 0.03297
2834 150 2 42.6339 29.7141 33.5981 12.011 0.01762
2835 150 2 42.5419 30.7138 34.7383 12.011 -0.23743
2836 150 2 41.1621 31.3156 34.7904 12.011 -0.24423
2837 150 3 46.2172 29.2049 33.1873 12.011 -0.1837
2838 150 3 47.221 29.4102 34.0189 12.011 -0.23415
2839 150 1 47.1185 30.1641 34.7909 1.008 0.12909
2840 150 1 48.1434 28.8477 33.9732 1.008 0.12909
2841 150 1 46.2617 28.4537 32.4076 1.008 0.15086
2842 150 1 45.0552 30.6501 34.1549 1.008 0.07222
2843 150 1 44.8388 30.6074 32.394 1.008 0.07222
2844 150 1 42.399 30.1965 32.6508 1.008 0.09202
2845 150 1 41.9097 28.9129 33.7458 1.008 0.09202
2846 150 1 43.2214 31.5405 34.5687 1.008 0.10167
2847 150 1 42.7858 30.2605 35.6978 1.008 0.10167
2848 150 1 41.2248 32.3046 35.228 1.008 0.08773
2849 150 1 40.7765 31.4274 33.7827 1.008 0.08773
2850 150 1 40.499 30.6972 35.3879 1.008 0.08773
2851 151 4 46.6323 4.99576 15.2421 15.999 -0.35515
2852 151 2 46.6141 4.75009 13.8586 12.011 0.03297
2853 151 2 46.9631 6.32392 15.568 12.011 0.01762
2854 151 2 48.3511 6.72544 15.0653 12.011 -0.23743
2855 151 2 48.6579 8.14492 15.4727 12.011 -0.24423
2856 151 3 46.2106 3.31721 13.6609 12.011 -0.1837
2857 151 3 47.0109 2.46819 13.0435 12.011 -0.23415
2858 151 1 47.9711 2.81381 12.6766 1.008 0.12909
2859 151 1 46.7482 1.43063 12.8821 1.008 0.12909
2860 151 1 45.242 3.01579 14.0512 1.008 0.15086
2861 151 1 47.6181 4.85839 13.4481 1.008 0.07222
2862 151 1 45.9347 5.38825 13.2963 1.008 0.07222
2863 151 1 46.2094 7.00205 15.1677 1.008 0.09202
2864 151 1 46.92 6.39891 16.6552 1.008 0.09202
2865 151 1 48.3804 6.71212 13.9781 1.008 0.10167
2866 151 1 49.1297 6.06316 15.4451 1.008 0.10167
2867 151 1 49.3599 8.57363 14.7635 1.008 0.08773
2868 151 1 47.7428 8.73109 15.4489 1.008 0.08773
2869 151 1 49.0852 8.17366 16.4728 1.008 0.08773
2870 152 4 9.16073 14.8155 39.2371 15.999 -0.35515
2871 152 2 8.51074 15.6388 38.3027 12.011 0.03297
2872 152 2 10.5385 14.6684 38.9933 12.011 0.01762
2873 152 2 10.7969 13.9854 37.6528 12.011 -0.23743
2874 152 2 12.2785 13.8015 37.4424 12.011 -0.24423
2875 152 3 7.07911 15.7701 38.7366 12.011 -0.1837
2876 152 3 6.09873 15.3479 37.9602 12.011 -0.23415
2877 152 1 6.33663 14.9014 37.0007 1.008 0.12909
2878 152 1 5.05636 15.4324 38.2377 1.008 0.12909
2879 152 1 6.89214 16.2224 39.7073 1.008 0.15086
2880 152 1 8.50901 15.1369 37.3366 1.008 0.07222
2881 152 1 8.93543 16.6352 38.1824 1.008 0.07222
2882 152 1 11.0443 15.6352 39.03 1.008 0.09202
2883 152 1 10.9386 14.0663 39.8102 1.008 0.09202
2884 152 1 10.4524 14.6134 36.8348 1.008 0.10167
2885 152 1 10.2959 13.0187 37.5861 1.008 0.10167
2886 152 1 12.4865 13.778 36.3752 1.008 0.08773
2887 152 1 12.813 14.6444 37.8741 1.008 0.08773
2888 152 1 12.6165 12.8751 37.903 1.008 0.08773
2889 153 4 45.2189 10.3967 42.1844 15.999 -0.35515
2890 153 2 46.469 9.94311 42.6066 12.011 0.03297
2891 153 2 45.212 11.7152 41.6976 12.011 0.01762
2892 153 2 45.6864 12.7333 42.7324 12.011 -0.23743
2893 153 2 45.6441 14.1217 42.1432 12.011 -0.24423
2894 153 3 46.3051 8.52853 43.0772 12.011 -0.1837
2895 153 3 46.6157 8.18731 44.3143 12.011 -0.23415
2896 153 1 46.9916 8.94471 44.9925 1.008 0.12909
2897 153 1 46.5186 7.17585 44.685 1.008 0.12909
2898 153 1 45.921 7.81184 42.3579 1.008 0.15086
2899 153 1 46.8092 10.5295 43.4578 1.008 0.07222
2900 153 1 47.2173 9.9732 41.8215 1.008 0.07222
2901 153 1 45.819 11.7636 40.799 1.008 0.09202
2902 153 1 44.1911 11.9436 41.3978 1.008 0.09202
2903 153 1 46.7263 12.5467 42.9865 1.008 0.10167
2904 153 1 45.0922 12.7084 43.6469 1.008 0.10167
2905 153 1 46.3916 14.739 42.6363 1.008 0.08773
2906 153 1 45.8871 14.0735 41.0839 1.008 0.08773
2907 153 1 44.6584 14.5637 42.2771 1.008 0.08773
2908 154 4 38.809 6.08847 1.39985 15.999 -0.35515
2909 154 2 38.5044 5.62249 2.69086 12.011 0.03297
2910 154 2 40.1744 6.38047 1.22256 12.011 0.01762
2911 154 2 40.6714 7.4705 2.17437 12.011 -0.23743
2912 154 2 42.1297 7.76135 1.91471 12.011 -0.24423
2913 154 3 37.0353 5.31391 2.72162 12.011 -0.1837
2914 154 3 36.2313 5.93316 3.56643 12.011 -0.23415
2915 154 1 36.6429 6.67318 4.24395 1.008 0.12909
2916 154 1 35.1696 5.73 3.61628 1.008 0.12909
2917 154 1 36.6704 4.56786 2.02101 1.008 0.15086
2918 154 1 38.68 6.41152 3.4224 1.008 0.07222
2919 154 1 39.0574 4.73479 2.99417 1.008 0.07222
2920 154 1 40.7682 5.47472 1.3488 1.008 0.09202
2921 154 1 40.2928 6.70227 0.187322 1.008 0.09202
2922 154 1 40.6133 7.12988 3.20578 1.008 0.10167
2923 154 1 40.0948 8.39073 2.07687 1.008 0.10167
2924 154 1 42.5874 8.1343 2.828 1.008 0.08773
2925 154 1 42.6368 6.84145 1.63154 1.008 0.08773
2926 154 1 42.2362 8.49887 1.12146 1.008 0.08773
2927 155 4 17.4864 19.4217 4.5731 15.999 -0.35515
2928 155 2 18.2224 18.8158 3.54765 12.011 0.03297
2929 155 2 18.2187 20.3248 5.36145 12.011 0.01762
2930 155 2 19.4417 19.6942 6.02861 12.011 -0.23743
2931 155 2 20.1717 20.7305 6.8432 12.011 -0.24423
2932 155 3 17.3022 17.8836 2.81072 12.011 -0.1837
2933 155 3 17.5843 16.5987 2.69792 12.011 -0.23415
2934 155 1 18.4788 16.2118 3.16919 1.008 0.12909
2935 155 1 16.9357 15.8956 2.19491 1.008 0.12909
2936 155 1 16.3994 18.3101 2.38374 1.008 0.15086
2937 155 1 19.0282 18.2107 3.96267 1.008 0.07222
2938 155 1 18.6364 19.532 2.84699 1.008 0.07222
2939 155 1 18.5144 21.1621 4.73419 1.008 0.09202
2940 155 1 17.5377 20.7152 6.11898 1.008 0.09202
2941 155 1 20.1473 19.3561 5.27773 1.008 0.10167
2942 155 1 19.1833 18.8529 6.66998 1.008 0.10167
2943 155 1 21.2247 20.4645 6.90414 1.008 0.08773
2944 155 1 20.0972 21.7004 6.36009 1.008 0.08773
2945 155 1 19.7442 20.7994 7.83991 1.008 0.08773
2946 156 4 27.3952 23.3974 20.3029 15.999 -0.35515
2947 156 2 26.2281 22.6438 20.4864 12.011 0.03297
2948 156 2 27.1633 24.6333 19.6782 12.011 0.01762
2949 156 2 26.5538 24.4867 18.286 12.011 -0.23743
2950 156 2 26.3604 25.8402 17.6538 12.011 -0.24423
2951 156 3 26.6656 21.3787 21.1687 12.011 -0.1837
2952 156 3 26.4171 20.1995 20.6282 12.011 -0.23415
2953 156 1 25.9009 20.1485 19.6742 1.008 0.12909
2954 156 1 26.6323 19.2641 21.1291 1.008 0.12909
2955 156 1 27.0937 21.478 22.1619 1.008 0.15086
2956 156 1 25.7998 22.3525 19.5273 1.008 0.07222
2957 156 1 25.4521 23.1463 21.0687 1.008 0.07222
2958 156 1 26.5218 25.2517 20.3058 1.008 0.09202
2959 156 1 28.1303 25.1289 19.6112 1.008 0.09202
2960 156 1 25.5662 24.0519 18.3648 1.008 0.10167
2961 156 1 27.1606 23.8614 17.6316 1.008 0.10167
2962 156 1 25.5378 25.7893 16.9443 1.008 0.08773
2963 156 1 26.1037 26.5605 18.4251 1.008 0.08773
2964 156 1 27.2683 26.1558 17.1461 1.008 0.08773
2965 157 4 32.0511 30.0279 44.9639 15.999 -0.35515
2966 157 2 32.575 29.2927 43.909 12.011 0.03297
2967 157 2 31.2725 29.244 45.8247 12.011 0.01762
2968 157 2 30.079 28.5916 45.1282 12.011 -0.23743
2969 157 2 29.2588 27.8139 46.1269 12.011 -0.24423
2970 157 3 33.3767 30.261 43.0739 12.011 -0.1837
2971 157 3 33.1209 30.4499 41.808 12.011 -0.23415
2972 157 1 32.3097 29.8943 41.3309 1.008 0.12909
2973 157 1 33.7568 31.0535 41.1518 1.008 0.12909
2974 157 1 34.2577 30.6996 43.564 1.008 0.15086
2975 157 1 31.8011 28.8982 43.2463 1.008 0.07222
2976 157 1 33.1943 28.4625 44.2437 1.008 0.07222
2977 157 1 31.8913 28.4828 46.297 1.008 0.09202
2978 157 1 30.9333 29.9238 46.6026 1.008 0.09202
2979 157 1 30.4145 27.8714 44.3846 1.008 0.10167
2980 157 1 29.4468 29.3293 44.6367 1.008 0.10167
2981 157 1 28.7411 27.0099 45.6096 1.008 0.08773
2982 157 1 29.9213 27.3735 46.868 1.008 0.08773
2983 157 1 28.5376 28.4665 46.6149 1.008 0.08773
2984 158 4 27.576 42.5881 14.0043 15.999 -0.35515
2985 158 2 28.7713 41.9705 14.4066 12.011 0.03297
2986 158 2 27.0914 43.5175 14.936 12.011 0.01762
2987 158 2 26.793 42.8897 16.2962 12.011 -0.23743
2988 158 2 26.2529 43.9337 17.2391 12.011 -0.24423
2989 158 3 29.2179 41.0734 13.3022 12.011 -0.1837
2990 158 3 29.4203 39.7901 13.5313 12.011 -0.23415
2991 158 1 29.1867 39.4131 14.5102 1.008 0.12909
2992 158 1 29.669 39.081 12.7587 1.008 0.12909
2993 158 1 29.3669 41.4825 12.3173 1.008 0.15086
2994 158 1 28.6076 41.3583 15.291 1.008 0.07222
2995 158 1 29.5847 42.6538 14.6143 1.008 0.07222
2996 158 1 27.8065 44.3315 15.0465 1.008 0.09202
2997 158 1 26.1821 43.9371 14.5074 1.008 0.09202
2998 158 1 27.7089 42.5198 16.7495 1.008 0.10167
2999 158 1 26.0867 42.0617 16.2149 1.008 0.10167
3000 158 1 26.4846 43.6396 18.2587 1.008 0.08773
3001 158 1 26.7282 44.8897 17.0374 1.008 0.08773
3002 158 1 25.1775 44.0277 17.1224 1.008 0.08773
3003 159 4 45.5014 32.087 39.106 15.999 -0.35515
3004 159 2 44.3176 32.7809 38.8916 12.011 0.03297
3005 159 2 46.6164 32.9269 39.1938 12.011 0.01762
3006 159 2 46.831 33.7551 37.93 12.011 -0.23743
3007 159 2 48.0783 34.5909 38.0606 12.011 -0.24423
3008 159 3 43.2413 31.7564 38.8438 12.011 -0.1837
3009 159 3 42.4161 31.6919 37.8227 12.011 -0.23415
3010 159 1 42.5559 32.3675 36.9926 1.008 0.12909
3011 159 1 41.5603 31.0295 37.8008 1.008 0.12909
3012 159 1 43.0605 31.189 39.7532 1.008 0.15086
3013 159 1 44.2896 33.3265 37.9544 1.008 0.07222
3014 159 1 44.1423 33.4798 39.6819 1.008 0.07222
3015 159 1 46.5354 33.5785 40.0623 1.008 0.09202
3016 159 1 47.4621 32.2629 39.3589 1.008 0.09202
3017 159 1 46.0133 34.4559 37.7966 1.008 0.10167
3018 159 1 46.91 33.1288 37.0425 1.008 0.10167
3019 159 1 47.9823 35.4784 37.4394 1.008 0.08773
3020 159 1 48.1906 34.9083 39.0944 1.008 0.08773
3021 159 1 48.9512 34.0182 37.754 1.008 0.08773
3022 160 4 32.8196 23.3946 25.3477 15.999 -0.35515
3023 160 2 32.3914 22.3754 26.2157 12.011 0.03297
3024 160 2 32.4988 23.1505 23.9999 12.011 0.01762
3025 160 2 33.1341 21.8689 23.4718 12.011 -0.23743
3026 160 2 32.7992 21.6744 22.0129 12.011 -0.24423
3027 160 3 32.7546 22.7908 27.6129 12.011 -0.1837
3028 160 3 33.5633 22.0519 28.3497 12.011 -0.23415
3029 160 1 33.9694 21.1358 27.9353 1.008 0.12909
3030 160 1 33.8408 22.3229 29.3598 1.008 0.12909
3031 160 1 32.3289 23.7223 27.9797 1.008 0.15086
3032 160 1 32.9366 21.4557 26.0039 1.008 0.07222
3033 160 1 31.3234 22.1667 26.1759 1.008 0.07222
3034 160 1 31.419 23.0998 23.8736 1.008 0.09202
3035 160 1 32.8542 24.0116 23.4325 1.008 0.09202
3036 160 1 32.7518 20.9963 23.9903 1.008 0.10167
3037 160 1 34.2053 21.8825 23.6133 1.008 0.10167
3038 160 1 32.8324 20.6135 21.7771 1.008 0.08773
3039 160 1 31.7895 22.0329 21.8314 1.008 0.08773
3040 160 1 33.4964 22.2125 21.3751 1.008 0.08773
3041 161 4 4.14678 28.8766 4.4232 15.999 -0.35515
3042 161 2 5.43722 28.4822 4.07781 12.011 0.03297
3043 161 2 3.16237 27.8802 4.31114 12.011 0.01762
3044 161 2 3.03487 27.3714 2.88153 12.011 -0.23743
3045 161 2 1.96544 26.3113 2.80744 12.011 -0.24423
3046 161 3 6.36491 29.6409 4.31039 12.011 -0.1837
3047 161 3 7.09046 30.1337 3.32468 12.011 -0.23415
3048 161 1 6.95613 29.7295 2.32594 1.008 0.12909
3049 161 1 7.72806 30.9989 3.44225 1.008 0.12909
3050 161 1 6.39915 30.0616 5.31201 1.008 0.15086
3051 161 1 5.45595 28.2555 3.01502 1.008 0.07222
3052 161 1 5.79624 27.6301 4.64415 1.008 0.07222
3053 161 1 3.39602 27.0652 4.99338 1.008 0.09202
3054 161 1 2.21445 28.3135 4.64037 1.008 0.09202
3055 161 1 3.95874 26.8907 2.57225 1.008 0.10167
3056 161 1 2.8035 28.1736 2.18052 1.008 0.10167
3057 161 1 2.18844 25.6385 1.9833 1.008 0.08773
3058 161 1 1.96432 25.732 3.72794 1.008 0.08773
3059 161 1 0.986519 26.7634 2.65823 1.008 0.08773
3060 162 4 47.8752 16.7909 11.3231 15.999 -0.35515
3061 162 2 48.8675 15.9034 11.7705 12.011 0.03297
3062 162 2 46.6197 16.5669 11.9148 12.011 0.01762
3063 162 2 46.0709 15.1694 11.6321 12.011 -0.23743
3064 162 2 44.7154 15.0018 12.27 12.011 -0.24423
3065 162 3 50.1501 16.2822 11.0903 12.011 -0.1837
3066 162 3 50.7858 15.4202 10.3187 12.011 -0.23415
3067 162 1 50.3707 14.4284 10.1782 1.008 0.12909
3068 162 1 51.7133 15.6606 9.81596 1.008 0.12909
3069 162 1 50.5221 17.2892 11.2585 1.008 0.15086
3070 162 1 48.6268 14.8866 11.4617 1.008 0.07222
3071 162 1 49.0311 15.9127 12.8442 1.008 0.07222
3072 162 1 46.6839 16.732 12.9865 1.008 0.09202
3073 162 1 45.9486 17.3266 11.5192 1.008 0.09202
3074 162 1 46.7072 14.417 12.0862 1.008 0.10167
3075 162 1 45.9948 14.9683 10.5629 1.008 0.10167
3076 162 1 44.5491 13.9542 12.4936 1.008 0.08773
3077 162 1 44.6883 15.546 13.2057 1.008 0.08773
3078 162 1 43.9317 15.3607 11.6088 1.008 0.08773
3079 163 4 38.2651 32.4401 3.29391 15.999 -0.35515
3080 163 2 37.9494 31.786 4.49397 12.011 0.03297
3081 163 2 37.9559 31.6811 2.15063 12.011 0.01762
3082 163 2 38.7165 30.3558 2.09633 12.011 -0.23743
3083 163 2 38.3684 29.608 0.8322 12.011 -0.24423
3084 163 3 38.2874 32.71 5.62572 12.011 -0.1837
3085 163 3 39.1715 32.3637 6.54445 12.011 -0.23415
3086 163 1 39.6562 31.3959 6.47685 1.008 0.12909
3087 163 1 39.4366 33.0098 7.37013 1.008 0.12909
3088 163 1 37.7776 33.6681 5.64669 1.008 0.15086
3089 163 1 38.5802 30.9057 4.60776 1.008 0.07222
3090 163 1 36.9052 31.4891 4.58237 1.008 0.07222
3091 163 1 36.8822 31.4978 2.10455 1.008 0.09202
3092 163 1 38.2171 32.2991 1.29151 1.008 0.09202
3093 163 1 38.4118 29.7114 2.91615 1.008 0.10167
3094 163 1 39.7962 30.5018 2.14844 1.008 0.10167
3095 163 1 38.4973 28.5414 1.0016 1.008 0.08773
3096 163 1 37.3261 29.7889 0.579958 1.008 0.08773
3097 163 1 39.0076 29.9294 0.0119556 1.008 0.08773
3098 164 4 8.77868 44.8021 17.2285 15.999 -0.35515
3099 164 2 8.57494 44.9863 15.8478 12.011 0.03297
3100 164 2 8.41909 45.9234 17.9961 12.011 0.01762
3101 164 2 9.21728 47.176 17.636 12.011 -0.23743
3102 164 2 8.80643 48.329 18.5151 12.011 -0.24423
3103 164 3 8.9675 43.711 15.1597 12.011 -0.1837
3104 164 3 9.92481 43.693 14.2516 12.011 -0.23415
3105 164 1 10.4338 44.6132 13.9989 1.008 0.12909
3106 164 1 10.2367 42.7928 13.7401 1.008 0.12909
3107 164 1 8.4347 42.8095 15.4422 1.008 0.15086
3108 164 1 9.23451 45.7655 15.4693 1.008 0.07222
3109 164 1 7.55547 45.2397 15.5693 1.008 0.07222
3110 164 1 7.3528 46.1165 17.8878 1.008 0.09202
3111 164 1 8.59372 45.6566 19.036 1.008 0.09202
3112 164 1 8.998 47.483 16.6169 1.008 0.10167
3113 164 1 10.2898 47.0216 17.7339 1.008 0.10167
3114 164 1 8.98468 49.262 17.9852 1.008 0.08773
3115 164 1 7.74321 48.2564 18.7293 1.008 0.08773
3116 164 1 9.37232 48.319 19.4445 1.008 0.08773
3117 165 4 17.8708 24.6311 46.8659 15.999 -0.35515
3118 165 2 17.3114 25.8494 46.4573 12.011 0.03297
3119 165 2 18.6978 24.7523 47.9931 12.011 0.01762
3120 165 2 19.8886 25.6788 47.7458 12.011 -0.23743
3121 165 2 20.7602 25.7346 48.9763 12.011 -0.24423
3122 165 3 16.4447 25.5431 45.2643 12.011 -0.1837
3123 165 3 16.6446 26.1343 44.107 12.011 -0.23415
3124 165 1 17.4656 26.8332 44.0124 1.008 0.12909
3125 165 1 16.0017 25.9787 43.2514 1.008 0.12909
3126 165 1 15.6019 24.8797 45.4122 1.008 0.15086
3127 165 1 18.0877 26.5309 46.1127 1.008 0.07222
3128 165 1 16.7329 26.363 47.2278 1.008 0.07222
3129 165 1 18.1179 25.1022 48.8471 1.008 0.09202
3130 165 1 19.0434 23.7455 48.2261 1.008 0.09202
3131 165 1 19.5474 26.6973 47.5747 1.008 0.10167
3132 165 1 20.4838 25.3588 46.8906 1.008 0.10167
3133 165 1 21.2778 26.6893 49.0028 1.008 0.08773
3134 165 1 20.1388 25.6703 49.8659 1.008 0.08773
3135 165 1 21.4814 24.9193 48.9709 1.008 0.08773
3136 166 4 3.47583 8.12037 4.49671 15.999 -0.35515
3137 166 2 4.81063 8.50168 4.71633 12.011 0.03297
3138 166 2 3.04295 7.09481 5.35745 12.011 0.01762
3139 166 2 3.86252 5.81259 5.20481 12.011 -0.23743
3140 166 2 3.33147 4.74303 6.12844 12.011 -0.24423
3141 166 3 5.11614 9.61697 3.75874 12.011 -0.1837
3142 166 3 6.08689 9.50397 2.87197 12.011 -0.23415
3143 166 1 6.66092 8.58518 2.83168 1.008 0.12909
3144 166 1 6.33712 10.2946 2.17693 1.008 0.12909
3145 166 1 4.51244 10.5175 3.84011 1.008 0.15086
3146 166 1 5.48037 7.67792 4.46918 1.008 0.07222
3147 166 1 5.02527 8.83351 5.73162 1.008 0.07222
3148 166 1 3.07634 7.43756 6.39187 1.008 0.09202
3149 166 1 1.99751 6.90329 5.11362 1.008 0.09202
3150 166 1 4.89352 5.98133 5.50664 1.008 0.10167
3151 166 1 3.8549 5.44282 4.1789 1.008 0.10167
3152 166 1 4.13606 4.05542 6.37891 1.008 0.08773
3153 166 1 2.97882 5.20268 7.04897 1.008 0.08773
3154 166 1 2.51767 4.19864 5.65321 1.008 0.08773
3155 167 4 46.8975 49.721 33.3087 15.999 -0.35515
3156 167 2 45.8408 49.459 32.4673 12.011 0.03297
3157 167 2 47.5786 48.5427 33.5738 12.011 0.01762
3158 167 2 46.7107 47.4893 34.2633 12.011 -0.23743
3159 167 2 47.5453 46.2724 34.5813 12.011 -0.24423
3160 167 3 45.3323 50.7272 32.1497 12.011 -0.1837
3161 167 3 43.9147 50.7769 32.3054 12.011 -0.23415
3162 167 1 43.3103 50.1733 32.8882 1.008 0.12909
3163 167 1 43.6991 51.559 31.6597 1.008 0.12909
3164 167 1 45.7471 51.5601 31.6621 1.008 0.15086
3165 167 1 45.037 48.8825 32.918 1.008 0.07222
3166 167 1 46.0788 49.0489 31.4906 1.008 0.07222
3167 167 1 48.0015 48.1367 32.6553 1.008 0.09202
3168 167 1 48.3975 48.8429 34.2137 1.008 0.09202
3169 167 1 45.9221 47.1422 33.5992 1.008 0.10167
3170 167 1 46.2573 47.8687 35.1792 1.008 0.10167
3171 167 1 46.9026 45.3953 34.6185 1.008 0.08773
3172 167 1 48.2821 46.1212 33.7961 1.008 0.08773
3173 167 1 48.0496 46.3992 35.536 1.008 0.08773
3174 168 4 41.2829 32.8448 40.0653 15.999 -0.35515
3175 168 2 41.3677 33.9725 40.8579 12.011 0.03297
3176 168 2 40.4924 31.7803 40.5 12.011 0.01762
3177 168 2 40.7881 31.3037 41.9051 12.011 -0.23743
3178 168 2 39.8003 30.2392 42.3037 12.011 -0.24423
3179 168 3 42.3316 34.9483 40.2389 12.011 -0.1837
3180 168 3 43.3764 35.376 40.9121 12.011 -0.23415
3181 168 1 43.5529 34.9917 41.9112 1.008 0.12909
3182 168 1 44.1311 36.0259 40.4841 1.008 0.12909
3183 168 1 42.1707 35.2115 39.1955 1.008 0.15086
3184 168 1 41.7565 33.6999 41.8357 1.008 0.07222
3185 168 1 40.4014 34.4401 40.9151 1.008 0.07222
3186 168 1 39.5148 32.1713 40.4281 1.008 0.09202
3187 168 1 40.5439 30.9686 39.7777 1.008 0.09202
3188 168 1 40.6539 32.1272 42.5959 1.008 0.10167
3189 168 1 41.7973 30.9187 41.984 1.008 0.10167
3190 168 1 39.6844 30.2557 43.3825 1.008 0.08773
3191 168 1 38.8313 30.4427 41.857 1.008 0.08773
3192 168 1 40.1321 29.262 41.9761 1.008 0.08773
3193 169 4 34.0225 41.8329 46.2521 15.999 -0.35515
3194 169 2 34.4835 41.8881 47.5778 12.011 0.03297
3195 169 2 33.6122 43.0836 45.7565 12.011 0.01762
3196 169 2 32.4587 43.6892 46.5587 12.011 -0.23743
3197 169 2 32.0402 45.0088 45.9563 12.011 -0.24423
3198 169 3 34.9222 40.5021 47.9575 12.011 -0.1837
3199 169 3 34.3533 39.8549 48.9578 12.011 -0.23415
3200 169 1 33.5553 40.3382 49.5086 1.008 0.12909
3201 169 1 34.6593 38.8708 49.2772 1.008 0.12909
3202 169 1 35.722 40.0605 47.3734 1.008 0.15086
3203 169 1 33.665 42.1611 48.2424 1.008 0.07222
3204 169 1 35.3091 42.5782 47.7437 1.008 0.07222
3205 169 1 34.4585 43.7701 45.7371 1.008 0.09202
3206 169 1 33.3065 42.9221 44.7231 1.008 0.09202
3207 169 1 32.7741 43.9043 47.5767 1.008 0.10167
3208 169 1 31.6003 43.0249 46.6035 1.008 0.10167
3209 169 1 31.6084 45.6342 46.7343 1.008 0.08773
3210 169 1 32.9147 45.5181 45.5581 1.008 0.08773
3211 169 1 31.3164 44.8527 45.1599 1.008 0.08773
3212 170 4 26.0336 5.63153 33.3078 15.999 -0.35515
3213 170 2 27.0797 5.04113 32.5856 12.011 0.03297
3214 170 2 24.886 4.81998 33.3782 12.011 0.01762
3215 170 2 24.3016 4.50315 32.0001 12.011 -0.23743
3216 170 2 23.055 3.66451 32.1461 12.011 -0.24423
3217 170 3 28.2487 5.98455 32.6242 12.011 -0.1837
3218 170 3 28.7603 6.47535 31.5111 12.011 -0.23415
3219 170 1 28.3272 6.18717 30.5599 1.008 0.12909
3220 170 1 29.6031 7.15372 31.5056 1.008 0.12909
3221 170 1 28.6465 6.23731 33.6026 1.008 0.15086
3222 170 1 26.7975 4.92445 31.5387 1.008 0.07222
3223 170 1 27.3878 4.071 32.97 1.008 0.07222
3224 170 1 25.1127 3.89477 33.9089 1.008 0.09202
3225 170 1 24.1585 5.36615 33.9789 1.008 0.09202
3226 170 1 24.9989 3.90313 31.42 1.008 0.10167
3227 170 1 24.0645 5.40833 31.4405 1.008 0.10167
3228 170 1 22.9214 3.06356 31.2496 1.008 0.08773
3229 170 1 23.1691 2.99015 32.9922 1.008 0.08773
3230 170 1 22.1829 4.29904 32.2962 1.008 0.08773
3231 171 4 9.63544 18.095 41.645 15.999 -0.35515
3232 171 2 9.51329 18.9267 42.7679 12.011 0.03297
3233 171 2 9.32742 16.7553 41.9103 12.011 0.01762
3234 171 2 10.2104 16.1272 42.9848 12.011 -0.23743
3235 171 2 9.82559 14.682 43.1885 12.011 -0.24423
3236 171 3 9.8562 20.323 42.3478 12.011 -0.1837
3237 171 3 10.8428 20.9862 42.9227 12.011 -0.23415
3238 171 1 11.4218 20.5068 43.7016 1.008 0.12909
3239 171 1 11.1217 21.9918 42.6347 1.008 0.12909
3240 171 1 9.25962 20.7458 41.5504 1.008 0.15086
3241 171 1 10.2347 18.6437 43.5327 1.008 0.07222
3242 171 1 8.51692 18.9308 43.2002 1.008 0.07222
3243 171 1 8.27643 16.6732 42.1747 1.008 0.09202
3244 171 1 9.46164 16.2327 40.9753 1.008 0.09202
3245 171 1 10.0409 16.6202 43.9372 1.008 0.10167
3246 171 1 11.2695 16.1911 42.7354 1.008 0.10167
3247 171 1 10.0684 14.3896 44.2072 1.008 0.08773
3248 171 1 8.75255 14.5682 43.0477 1.008 0.08773
3249 171 1 10.3548 14.0427 42.4842 1.008 0.08773
3250 172 4 43.2467 1.57353 44.5722 15.999 -0.35515
3251 172 2 44.2461 2.48864 44.2007 12.011 0.03297
3252 172 2 43.0359 1.51485 45.9624 12.011 0.01762
3253 172 2 44.2851 1.08202 46.7309 12.011 -0.23743
3254 172 2 43.9887 1.0099 48.2086 12.011 -0.24423
3255 172 3 44.3332 2.47761 42.7022 12.011 -0.1837
3256 172 3 45.457 2.14791 42.0923 12.011 -0.23415
3257 172 1 46.3241 1.8824 42.6858 1.008 0.12909
3258 172 1 45.5529 2.13061 41.0146 1.008 0.12909
3259 172 1 43.4364 2.74485 42.1501 1.008 0.15086
3260 172 1 45.2103 2.15826 44.5796 1.008 0.07222
3261 172 1 44.0775 3.50769 44.5395 1.008 0.07222
3262 172 1 42.6891 2.48202 46.3272 1.008 0.09202
3263 172 1 42.2295 0.799866 46.1258 1.008 0.09202
3264 172 1 45.0707 1.82246 46.6215 1.008 0.10167
3265 172 1 44.6641 0.119553 46.3869 1.008 0.10167
3266 172 1 44.9063 1.1804 48.7669 1.008 0.08773
3267 172 1 43.2796 1.79057 48.4747 1.008 0.08773
3268 172 1 43.5768 0.0361614 48.4667 1.008 0.08773
3269 173 4 12.7977 21.9234 3.03405 15.999 -0.35515
3270 173 2 12.0455 22.9215 2.3914 12.011 0.03297
3271 173 2 11.9898 20.9249 3.60777 12.011 0.01762
3272 173 2 11.047 21.4714 4.68275 12.011 -0.23743
3273 173 2 10.2436 20.3489 5.29228 12.011 -0.24423
3274 173 3 12.9945 23.8912 1.76202 12.011 -0.1837
3275 173 3 12.9802 25.1686 2.1027 12.011 -0.23415
3276 173 1 12.297 25.5055 2.8722 1.008 0.12909
3277 173 1 13.6899 25.8855 1.71068 1.008 0.12909
3278 173 1 13.7142 23.4979 1.05026 1.008 0.15086
3279 173 1 11.4624 23.4766 3.12461 1.008 0.07222
3280 173 1 11.3814 22.5587 1.61088 1.008 0.07222
3281 173 1 11.4234 20.403 2.83962 1.008 0.09202
3282 173 1 12.6644 20.1861 4.02563 1.008 0.09202
3283 173 1 10.3234 22.146 4.2376 1.008 0.10167
3284 173 1 11.5805 22.0033 5.47054 1.008 0.10167
3285 173 1 9.29795 20.7395 5.65991 1.008 0.08773
3286 173 1 10.0335 19.6056 4.53036 1.008 0.08773
3287 173 1 10.782 19.8795 6.112 1.008 0.08773
3288 174 4 20.3281 17.8634 14.7026 15.999 -0.35515
3289 174 2 19.7065 18.8689 13.9411 12.011 0.03297
3290 174 2 21.2001 17.0566 13.9482 12.011 0.01762
3291 174 2 20.486 16.317 12.8182 12.011 -0.23743
3292 174 2 21.4612 15.444 12.0672 12.011 -0.24423
3293 174 3 18.8519 19.6768 14.8747 12.011 -0.1837
3294 174 3 17.549 19.7702 14.6857 12.011 -0.23415
3295 174 1 17.1044 19.2576 13.841 1.008 0.12909
3296 174 1 16.9033 20.3437 15.3366 1.008 0.12909
3297 174 1 19.3509 20.169 15.7045 1.008 0.15086
3298 174 1 19.0422 18.419 13.2031 1.008 0.07222
3299 174 1 20.3904 19.5385 13.4249 1.008 0.07222
3300 174 1 22.0165 17.6575 13.5466 1.008 0.09202
3301 174 1 21.6416 16.3439 14.6418 1.008 0.09202
3302 174 1 20.1013 17.028 12.0933 1.008 0.10167
3303 174 1 19.6587 15.7101 13.185 1.008 0.10167
3304 174 1 21.114 15.3148 11.0451 1.008 0.08773
3305 174 1 22.4333 15.9318 12.0375 1.008 0.08773
3306 174 1 21.554 14.4736 12.5519 1.008 0.08773
3307 175 4 44.7243 18.7261 28.32 15.999 -0.35515
3308 175 2 43.9181 18.555 27.1824 12.011 0.03297
3309 175 2 45.8636 17.9011 28.3248 12.011 0.01762
3310 175 2 45.5129 16.4133 28.2975 12.011 -0.23743
3311 175 2 46.7718 15.5884 28.3325 12.011 -0.24423
3312 175 3 42.7739 19.5199 27.2918 12.011 -0.1837
3313 175 3 41.5254 19.0975 27.3257 12.011 -0.23415
3314 175 1 41.3276 18.0404 27.2815 1.008 0.12909
3315 175 1 40.6719 19.7549 27.3943 1.008 0.12909
3316 175 1 43.0177 20.5741 27.3463 1.008 0.15086
3317 175 1 43.4971 17.5524 27.1795 1.008 0.07222
3318 175 1 44.4242 18.7248 26.2352 1.008 0.07222
3319 175 1 46.5061 18.1497 27.4801 1.008 0.09202
3320 175 1 46.4185 18.1404 29.2325 1.008 0.09202
3321 175 1 45.0162 16.1536 27.3659 1.008 0.10167
3322 175 1 44.8693 16.1281 29.1303 1.008 0.10167
3323 175 1 46.5824 14.6302 27.8523 1.008 0.08773
3324 175 1 47.5612 16.0934 27.7825 1.008 0.08773
3325 175 1 47.0842 15.4339 29.3626 1.008 0.08773
3326 176 4 15.3806 17.0654 7.20608 15.999 -0.35515
3327 176 2 15.6346 18.4412 7.09378 12.011 0.03297
3328 176 2 16.5437 16.2778 7.13863 12.011 0.01762
3329 176 2 17.3323 16.4197 5.86666 12.011 -0.23743
3330 176 2 18.5583 15.544 5.88347 12.011 -0.24423
3331 176 3 14.3284 19.1651 7.19694 12.011 -0.1837
3332 176 3 13.9055 19.9335 6.21404 12.011 -0.23415
3333 176 1 14.4964 20.0158 5.30478 1.008 0.12909
3334 176 1 12.952 20.4299 6.24245 1.008 0.12909
3335 176 1 13.7428 19.0196 8.09332 1.008 0.15086
3336 176 1 16.0281 18.6441 6.10774 1.008 0.07222
3337 176 1 16.3133 18.8576 7.8297 1.008 0.07222
3338 176 1 17.2136 16.5267 7.93047 1.008 0.09202
3339 176 1 16.2522 15.2501 7.31109 1.008 0.09202
3340 176 1 17.6952 17.4309 5.77711 1.008 0.10167
3341 176 1 16.7066 16.1907 5.01511 1.008 0.10167
3342 176 1 19.3163 15.9809 5.23855 1.008 0.08773
3343 176 1 18.9597 15.503 6.89165 1.008 0.08773
3344 176 1 18.3041 14.5466 5.53522 1.008 0.08773
3345 177 4 9.03333 47.4689 40.2827 15.999 -0.35515
3346 177 2 9.88751 47.6073 41.3865 12.011 0.03297
3347 177 2 9.55868 46.6794 39.2467 12.011 0.01762
3348 177 2 10.8214 47.3042 38.661 12.011 -0.23743
3349 177 2 11.3403 46.4551 37.5284 12.011 -0.24423
3350 177 3 9.15973 48.4007 42.4333 12.011 -0.1837
3351 177 3 9.62709 49.5625 42.8475 12.011 -0.23415
3352 177 1 10.5471 49.9448 42.4202 1.008 0.12909
3353 177 1 9.12786 50.1568 43.6013 1.008 0.12909
3354 177 1 8.23453 47.9827 42.8171 1.008 0.15086
3355 177 1 10.7519 48.194 41.0838 1.008 0.07222
3356 177 1 10.2277 46.6719 41.827 1.008 0.07222
3357 177 1 9.76375 45.6689 39.6018 1.008 0.09202
3358 177 1 8.78118 46.6007 38.4849 1.008 0.09202
3359 177 1 11.6122 47.3273 39.4067 1.008 0.10167
3360 177 1 10.6446 48.3198 38.3064 1.008 0.10167
3361 177 1 12.4142 46.5992 37.4396 1.008 0.08773
3362 177 1 11.1552 45.4061 37.7478 1.008 0.08773
3363 177 1 10.8534 46.727 36.5941 1.008 0.08773
3364 178 4 41.8927 11.9754 10.6613 15.999 -0.35515
3365 178 2 41.4126 12.5371 11.8404 12.011 0.03297
3366 178 2 42.8029 10.9223 10.8006 12.011 0.01762
3367 178 2 44.0383 11.3185 11.5998 12.011 -0.23743
3368 178 2 44.9583 10.1338 11.7283 12.011 -0.24423
3369 178 3 40.4608 13.6422 11.479 12.011 -0.1837
3370 178 3 40.6742 14.8761 11.8956 12.011 -0.23415
3371 178 1 41.5496 15.0846 12.5005 1.008 0.12909
3372 178 1 40.0034 15.6935 11.6683 1.008 0.12909
3373 178 1 39.5992 13.382 10.8707 1.008 0.15086
3374 178 1 42.2334 12.9842 12.3946 1.008 0.07222
3375 178 1 40.902 11.8108 12.4572 1.008 0.07222
3376 178 1 42.2804 10.0969 11.2696 1.008 0.09202
3377 178 1 43.0873 10.6004 9.79569 1.008 0.09202
3378 178 1 43.7554 11.5934 12.6123 1.008 0.10167
3379 178 1 44.5768 12.1506 11.1442 1.008 0.10167
3380 178 1 45.5391 10.2368 12.6407 1.008 0.08773
3381 178 1 44.3685 9.22361 11.8027 1.008 0.08773
3382 178 1 45.6232 10.0745 10.8689 1.008 0.08773
3383 179 4 46.2452 41.8112 35.8116 15.999 -0.35515
3384 179 2 45.2659 41.1809 36.588 12.011 0.03297
3385 179 2 46.9488 40.9213 34.9823 12.011 0.01762
3386 179 2 47.6842 39.8298 35.7636 12.011 -0.23743
3387 179 2 48.4442 38.9376 34.8152 12.011 -0.24423
3388 179 3 44.5337 42.2037 37.4008 12.011 -0.1837
3389 179 3 44.5305 42.1534 38.7205 12.011 -0.23415
3390 179 1 45.0706 41.3624 39.2258 1.008 0.12909
3391 179 1 44.0645 42.9173 39.3335 1.008 0.12909
3392 179 1 44.0692 43.0178 36.8515 1.008 0.15086
3393 179 1 45.7293 40.4935 37.297 1.008 0.07222
3394 179 1 44.5261 40.6558 35.9953 1.008 0.07222
3395 179 1 46.266 40.4738 34.2617 1.008 0.09202
3396 179 1 47.6601 41.5293 34.4239 1.008 0.09202
3397 179 1 46.9778 39.1888 36.2809 1.008 0.10167
3398 179 1 48.3703 40.2399 36.5027 1.008 0.10167
3399 179 1 48.5507 37.9524 35.2624 1.008 0.08773
3400 179 1 47.883 38.8357 33.8893 1.008 0.08773
3401 179 1 49.4269 39.3564 34.606 1.008 0.08773
3402 180 4 43.3352 15.0246 45.7748 15.999 -0.35515
3403 180 2 42.3907 16.0652 45.7605 12.011 0.03297
3404 180 2 43.0704 14.0463 46.7513 12.011 0.01762
3405 180 2 43.0724 14.6156 48.1714 12.011 -0.23743
3406 180 2 42.8155 13.5149 49.172 12.011 -0.24423
3407 180 3 42.7714 17.0026 44.652 12.011 -0.1837
3408 180 3 43.0516 18.268 44.9001 12.011 -0.23415
3409 180 1 43.0044 18.6233 45.9182 1.008 0.12909
3410 180 1 43.3222 18.9734 44.1277 1.008 0.12909
3411 180 1 42.8071 16.5943 43.6472 1.008 0.15086
3412 180 1 42.442 16.6282 46.6918 1.008 0.07222
3413 180 1 41.3646 15.7427 45.6052 1.008 0.07222
3414 180 1 42.1158 13.5621 46.5443 1.008 0.09202
3415 180 1 43.8463 13.2866 46.6499 1.008 0.09202
3416 180 1 42.2605 15.328 48.2964 1.008 0.10167
3417 180 1 44.0138 15.1115 48.4111 1.008 0.10167
3418 180 1 42.3557 13.9408 50.0611 1.008 0.08773
3419 180 1 42.125 12.7914 48.7449 1.008 0.08773
3420 180 1 43.7472 13.021 49.4422 1.008 0.08773
3421 181 4 38.1516 18.4983 28.1092 15.999 -0.35515
3422 181 2 37.0192 19.2802 27.8216 12.011 0.03297
3423 181 2 37.8639 17.3695 28.8998 12.011 0.01762
3424 181 2 37.2674 17.7373 30.2578 12.011 -0.23743
3425 181 2 37.01 16.4893 31.0672 12.011 -0.24423
3426 181 3 37.4647 20.4119 26.9426 12.011 -0.1837
3427 181 3 37.3044 21.6647 27.3269 12.011 -0.23415
3428 181 1 36.8443 21.8721 28.287 1.008 0.12909
3429 181 1 37.6111 22.5055 26.7194 1.008 0.12909
3430 181 1 37.9239 20.1542 25.9918 1.008 0.15086
3431 181 1 36.6242 19.7178 28.7377 1.008 0.07222
3432 181 1 36.2146 18.7481 27.3213 1.008 0.07222
3433 181 1 37.1846 16.702 28.3704 1.008 0.09202
3434 181 1 38.8041 16.8332 29.0319 1.008 0.09202
3435 181 1 36.2997 18.2163 30.131 1.008 0.10167
3436 181 1 37.9187 18.4073 30.8195 1.008 0.10167
3437 181 1 36.1988 16.6794 31.766 1.008 0.08773
3438 181 1 36.7058 15.6833 30.4032 1.008 0.08773
3439 181 1 37.9055 16.1989 31.6137 1.008 0.08773
3440 182 4 16.2509 7.471 39.6396 15.999 -0.35515
3441 182 2 16.0945 6.72937 38.455 12.011 0.03297
3442 182 2 17.3664 8.32937 39.6131 12.011 0.01762
3443 182 2 18.686 7.57913 39.4259 12.011 -0.23743
3444 182 2 19.8415 8.54977 39.4377 12.011 -0.24423
3445 182 3 14.855 5.89492 38.6079 12.011 -0.1837
3446 182 3 14.9137 4.57734 38.5388 12.011 -0.23415
3447 182 1 15.8719 4.09843 38.3702 1.008 0.12909
3448 182 1 14.0391 3.94908 38.6418 1.008 0.12909
3449 182 1 13.921 6.4226 38.781 1.008 0.15086
3450 182 1 16.9308 6.04072 38.3324 1.008 0.07222
3451 182 1 16.005 7.33218 37.5525 1.008 0.07222
3452 182 1 17.245 9.07147 38.824 1.008 0.09202
3453 182 1 17.3713 8.86492 40.5628 1.008 0.09202
3454 182 1 18.7127 7.09417 38.4529 1.008 0.10167
3455 182 1 18.8389 6.8234 40.1969 1.008 0.10167
3456 182 1 20.6632 8.13531 38.858 1.008 0.08773
3457 182 1 19.5354 9.48304 38.9721 1.008 0.08773
3458 182 1 20.1733 8.73806 40.4574 1.008 0.08773
3459 183 4 13.384 24.3593 31.4314 15.999 -0.35515
3460 183 2 12.8815 24.6414 32.7145 12.011 0.03297
3461 183 2 13.8979 25.4866 30.7681 12.011 0.01762
3462 183 2 12.8602 26.5918 30.5655 12.011 -0.23743
3463 183 2 13.4819 27.756 29.8333 12.011 -0.24423
3464 183 3 12.3812 23.3421 33.3118 12.011 -0.1837
3465 183 3 11.131 23.217 33.712 12.011 -0.23415
3466 183 1 10.4332 24.0385 33.5439 1.008 0.12909
3467 183 1 10.7193 22.2911 34.1005 1.008 0.12909
3468 183 1 13.1053 22.5331 33.402 1.008 0.15086
3469 183 1 12.0177 25.3053 32.6308 1.008 0.07222
3470 183 1 13.6029 25.0925 33.389 1.008 0.07222
3471 183 1 14.7491 25.87 31.3284 1.008 0.09202
3472 183 1 14.2701 25.1367 29.8043 1.008 0.09202
3473 183 1 12.5279 26.983 31.524 1.008 0.10167
3474 183 1 11.9934 26.2391 30.0093 1.008 0.10167
3475 183 1 12.9542 28.6683 30.1008 1.008 0.08773
3476 183 1 14.5199 27.8614 30.1404 1.008 0.08773
3477 183 1 13.4302 27.6016 28.7573 1.008 0.08773
3478 184 4 17.5654 41.8908 3.62246 15.999 -0.35515
3479 184 2 18.15 42.4962 4.74798 12.011 0.03297
3480 184 2 17.5211 40.4869 3.70265 12.011 0.01762
3481 184 2 18.9068 39.8582 3.83569 12.011 -0.23743
3482 184 2 18.7926 38.3542 3.88324 12.011 -0.24423
3483 184 3 18.0869 43.981 4.55643 12.011 -0.1837
3484 184 3 19.191 44.703 4.53898 12.011 -0.23415
3485 184 1 20.1454 44.2082 4.67167 1.008 0.12909
3486 184 1 19.181 45.7748 4.40128 1.008 0.12909
3487 184 1 17.1055 44.4274 4.4341 1.008 0.15086
3488 184 1 19.1964 42.2182 4.83071 1.008 0.07222
3489 184 1 17.6851 42.2556 5.69083 1.008 0.07222
3490 184 1 16.8975 40.1758 4.53777 1.008 0.09202
3491 184 1 17.0312 40.1398 2.79293 1.008 0.09202
3492 184 1 19.3689 40.1536 4.77484 1.008 0.10167
3493 184 1 19.5636 40.1484 3.0159 1.008 0.10167
3494 184 1 19.6409 37.9503 4.43088 1.008 0.08773
3495 184 1 17.8834 38.0763 4.41172 1.008 0.08773
3496 184 1 18.7746 37.9423 2.87627 1.008 0.08773
3497 185 4 42.6459 28.5279 38.8957 15.999 -0.35515
3498 185 2 43.2982 27.7025 37.9644 12.011 0.03297
3499 185 2 41.3459 28.0934 39.2042 12.011 0.01762
3500 185 2 40.427 28.0575 37.9833 12.011 -0.23743
3501 185 2 39.0427 27.6201 38.3894 12.011 -0.24423
3502 185 3 44.677 28.2561 37.766 12.011 -0.1837
3503 185 3 45.0795 28.6459 36.5749 12.011 -0.23415
3504 185 1 44.4053 28.5575 35.7356 1.008 0.12909
3505 185 1 46.0631 29.0461 36.3947 1.008 0.12909
3506 185 1 45.3226 28.3266 38.6337 1.008 0.15086
3507 185 1 42.791 27.7504 37.0002 1.008 0.07222
3508 185 1 43.3816 26.66 38.2655 1.008 0.07222
3509 185 1 41.3845 27.1124 39.6761 1.008 0.09202
3510 185 1 40.9574 28.787 39.9453 1.008 0.09202
3511 185 1 40.7795 27.3187 37.2678 1.008 0.10167
3512 185 1 40.3679 29.0243 37.4848 1.008 0.10167
3513 185 1 38.5582 27.1506 37.5384 1.008 0.08773
3514 185 1 39.1162 26.8871 39.1898 1.008 0.08773
3515 185 1 38.4513 28.4699 38.7215 1.008 0.08773
3516 186 4 8.6532 39.6841 34.6336 15.999 -0.35515
3517 186 2 8.85929 40.4226 33.4656 12.011 0.03297
3518 186 2 9.09292 38.3632 34.5851 12.011 0.01762
3519 186 2 8.27903 37.593 33.563 12.011 -0.23743
3520 186 2 8.70961 36.1535 33.5574 12.011 -0.24423
3521 186 3 8.43972 41.8594 33.6976 12.011 -0.1837
3522 186 3 7.46059 42.4116 33.03 12.011 -0.23415
3523 186 1 6.97263 41.8201 32.2629 1.008 0.12909
3524 186 1 7.19297 43.4535 33.1431 1.008 0.12909
3525 186 1 9.02839 42.4513 34.3925 1.008 0.15086
3526 186 1 8.18551 40.0233 32.7187 1.008 0.07222
3527 186 1 9.8864 40.4007 33.0885 1.008 0.07222
3528 186 1 10.1559 38.3082 34.3609 1.008 0.09202
3529 186 1 8.9457 37.9694 35.5901 1.008 0.09202
3530 186 1 8.47628 37.9809 32.5678 1.008 0.10167
3531 186 1 7.21025 37.6673 33.7602 1.008 0.10167
3532 186 1 8.51617 35.7337 32.5747 1.008 0.08773
3533 186 1 9.77909 36.0949 33.7478 1.008 0.08773
3534 186 1 8.16657 35.5949 34.3157 1.008 0.08773
3535 187 4 14.5885 42.0083 25.2128 15.999 -0.35515
3536 187 2 13.8044 42.5722 24.1915 12.011 0.03297
3537 187 2 13.9726 40.9122 25.8456 12.011 0.01762
3538 187 2 12.6463 41.2855 26.5098 12.011 -0.23743
3539 187 2 12.0527 40.0811 27.1921 12.011 -0.24423
3540 187 3 14.5966 43.6931 23.5849 12.011 -0.1837
3541 187 3 14.1348 44.928 23.5982 12.011 -0.23415
3542 187 1 13.172 45.1358 24.0502 1.008 0.12909
3543 187 1 14.6851 45.7512 23.1718 1.008 0.12909
3544 187 1 15.5586 43.4416 23.1458 1.008 0.15086
3545 187 1 12.9011 43.012 24.6155 1.008 0.07222
3546 187 1 13.5202 41.8772 23.4034 1.008 0.07222
3547 187 1 13.8165 40.1085 25.1254 1.008 0.09202
3548 187 1 14.6777 40.5449 26.5922 1.008 0.09202
3549 187 1 11.9185 41.5915 25.7625 1.008 0.10167
3550 187 1 12.7638 42.0912 27.2349 1.008 0.10167
3551 187 1 10.9729 40.19 27.2322 1.008 0.08773
3552 187 1 12.274 39.1943 26.6105 1.008 0.08773
3553 187 1 12.4605 39.9722 28.1941 1.008 0.08773
3554 188 4 23.7805 39.2221 43.3236 15.999 -0.35515
3555 188 2 24.8185 39.3896 42.399 12.011 0.03297
3556 188 2 23.0882 40.4054 43.6278 12.011 0.01762
3557 188 2 23.9949 41.4763 44.2302 12.011 -0.23743
3558 188 2 23.1932 42.7122 44.5534 12.011 -0.24423
3559 188 3 25.4285 38.0399 42.1562 12.011 -0.1837
3560 188 3 26.7046 37.8223 42.4087 12.011 -0.23415
3561 188 1 27.3088 38.6314 42.8002 1.008 0.12909
3562 188 1 27.1844 36.8661 42.2366 1.008 0.12909
3563 188 1 24.7814 37.2606 41.7665 1.008 0.15086
3564 188 1 25.5954 40.0216 42.8269 1.008 0.07222
3565 188 1 24.4999 39.8104 41.4488 1.008 0.07222
3566 188 1 22.6016 40.783 42.7311 1.008 0.09202
3567 188 1 22.2987 40.1407 44.3305 1.008 0.09202
3568 188 1 24.7466 41.786 43.5085 1.008 0.10167
3569 188 1 24.4955 41.1228 45.1308 1.008 0.10167
3570 188 1 23.8445 43.5826 44.5167 1.008 0.08773
3571 188 1 22.4113 42.8417 43.8089 1.008 0.08773
3572 188 1 22.7486 42.6326 45.5437 1.008 0.08773
3573 189 4 39.4403 20.5912 20.8926 15.999 -0.35515
3574 189 2 39.2977 20.9198 19.5332 12.011 0.03297
3575 189 2 38.2264 20.6103 21.6009 12.011 0.01762
3576 189 2 37.5662 21.987 21.5817 12.011 -0.23743
3577 189 2 36.2953 21.9536 22.3773 12.011 -0.24423
3578 189 3 40.6548 20.8165 18.8988 12.011 -0.1837
3579 189 3 41.2137 21.8653 18.3223 12.011 -0.23415
3580 189 1 40.6825 22.8105 18.3113 1.008 0.12909
3581 189 1 42.1899 21.8226 17.858 1.008 0.12909
3582 189 1 41.1521 19.8508 18.9441 1.008 0.15086
3583 189 1 38.9764 21.9567 19.4329 1.008 0.07222
3584 189 1 38.6047 20.2837 18.9854 1.008 0.07222
3585 189 1 37.5456 19.8624 21.1941 1.008 0.09202
3586 189 1 38.4558 20.3171 22.6257 1.008 0.09202
3587 189 1 37.2708 22.2566 20.5726 1.008 0.10167
3588 189 1 38.2158 22.7653 21.981 1.008 0.10167
3589 189 1 35.6167 22.7147 21.9996 1.008 0.08773
3590 189 1 35.814 20.9843 22.262 1.008 0.08773
3591 189 1 36.4913 22.1395 23.4316 1.008 0.08773
3592 190 4 25.1702 19.2421 6.45822 15.999 -0.35515
3593 190 2 24.9524 17.8732 6.23959 12.011 0.03297
3594 190 2 26.4382 19.6819 6.02981 12.011 0.01762
3595 190 2 27.5905 18.9659 6.73241 12.011 -0.23743
3596 190 2 28.9172 19.498 6.26609 12.011 -0.24423
3597 190 3 23.5608 17.564 6.70965 12.011 -0.1837
3598 190 3 23.3457 16.674 7.65981 12.011 -0.23415
3599 190 1 24.1902 16.1643 8.10803 1.008 0.12909
3600 190 1 22.3556 16.4267 8.0154 1.008 0.12909
3601 190 1 22.7487 18.1035 6.23102 1.008 0.15086
3602 190 1 25.6371 17.283 6.8458 1.008 0.07222
3603 190 1 25.0592 17.5602 5.20465 1.008 0.07222
3604 190 1 26.5326 19.5486 4.95351 1.008 0.09202
3605 190 1 26.4838 20.7527 6.23113 1.008 0.09202
3606 190 1 27.5837 17.9033 6.50777 1.008 0.10167
3607 190 1 27.5492 19.1003 7.80406 1.008 0.10167
3608 190 1 29.6715 18.725 6.38647 1.008 0.08773
3609 190 1 28.8435 19.7476 5.21276 1.008 0.08773
3610 190 1 29.1979 20.3801 6.83954 1.008 0.08773
3611 191 4 24.0908 45.6945 47.4446 15.999 -0.35515
3612 191 2 23.9128 46.8861 46.7212 12.011 0.03297
3613 191 2 25.1516 45.759 48.3671 12.011 0.01762
3614 191 2 26.4995 46.0297 47.6965 12.011 -0.23743
3615 191 2 27.5988 46.0561 48.7305 12.011 -0.24423
3616 191 3 22.7342 46.6842 45.817 12.011 -0.1837
3617 191 3 22.8704 46.7752 44.5088 12.011 -0.23415
3618 191 1 23.836 47.0149 44.0826 1.008 0.12909
3619 191 1 22.0397 46.6399 43.8337 1.008 0.12909
3620 191 1 21.778 46.4584 46.2815 1.008 0.15086
3621 191 1 24.7773 47.0661 46.0817 1.008 0.07222
3622 191 1 23.7407 47.769 47.3339 1.008 0.07222
3623 191 1 24.9468 46.5244 49.1164 1.008 0.09202
3624 191 1 25.1751 44.7989 48.8836 1.008 0.09202
3625 191 1 26.5021 47.0128 47.2321 1.008 0.10167
3626 191 1 26.7328 45.2841 46.9361 1.008 0.10167
3627 191 1 28.4098 46.6865 48.3738 1.008 0.08773
3628 191 1 27.2156 46.484 49.6542 1.008 0.08773
3629 191 1 27.9697 45.05 48.9173 1.008 0.08773
3630 192 4 24.4504 37.8983 33.3262 15.999 -0.35515
3631 192 2 23.4786 37.9035 34.3403 12.011 0.03297
3632 192 2 25.0875 36.656 33.1863 12.011 0.01762
3633 192 2 25.8247 36.2121 34.4475 12.011 -0.23743
3634 192 2 26.5151 34.8892 34.2216 12.011 -0.24423
3635 192 3 22.8548 39.269 34.3556 12.011 -0.1837
3636 192 3 22.9109 40.0247 35.4367 12.011 -0.23415
3637 192 1 23.4144 39.6514 36.3218 1.008 0.12909
3638 192 1 22.4697 41.012 35.4805 1.008 0.12909
3639 192 1 22.3668 39.6028 33.4429 1.008 0.15086
3640 192 1 23.9523 37.7566 35.3114 1.008 0.07222
3641 192 1 22.6934 37.1592 34.2186 1.008 0.07222
3642 192 1 24.3619 35.8972 32.8917 1.008 0.09202
3643 192 1 25.7947 36.7798 32.3699 1.008 0.09202
3644 192 1 25.117 36.0424 35.2546 1.008 0.10167
3645 192 1 26.5576 36.9519 34.7695 1.008 0.10167
3646 192 1 26.6104 34.3655 35.1687 1.008 0.08773
3647 192 1 25.9105 34.2737 33.561 1.008 0.08773
3648 192 1 27.5016 35.0434 33.7888 1.008 0.08773
3649 193 4 4.2545 37.8649 9.66013 15.999 -0.35515
3650 193 2 4.01154 36.5243 9.89014 12.011 0.03297
3651 193 2 3.13383 38.6842 9.80972 12.011 0.01762
3652 193 2 2.17646 38.3924 8.67787 12.011 -0.23743
3653 193 2 1.01195 39.3356 8.74851 12.011 -0.24423
3654 193 3 5.35594 35.8243 9.84095 12.011 -0.1837
3655 193 3 5.60799 34.8912 8.95747 12.011 -0.23415
3656 193 1 4.83454 34.6446 8.22566 1.008 0.12909
3657 193 1 6.48408 34.2522 8.96896 1.008 0.12909
3658 193 1 6.0124 35.978 10.694 1.008 0.15086
3659 193 1 3.43427 36.1754 9.04596 1.008 0.07222
3660 193 1 3.45261 36.2663 10.7997 1.008 0.07222
3661 193 1 2.64877 38.5793 10.7767 1.008 0.09202
3662 193 1 3.51216 39.7017 9.77961 1.008 0.09202
3663 193 1 1.77933 37.3874 8.78637 1.008 0.10167
3664 193 1 2.67263 38.469 7.71207 1.008 0.10167
3665 193 1 0.153189 38.8568 8.28929 1.008 0.08773
3666 193 1 0.777883 39.5417 9.79016 1.008 0.08773
3667 193 1 1.24626 40.2618 8.22994 1.008 0.08773
3668 194 4 34.5835 4.52504 45.2808 15.999 -0.35515
3669 194 2 34.302 5.83106 44.8378 12.011 0.03297
3670 194 2 35.354 4.48764 46.4572 12.011 0.01762
3671 194 2 36.7099 5.18167 46.3148 12.011 -0.23743
3672 194 2 37.4827 5.08382 47.6068 12.011 -0.24423
3673 194 3 33.4689 5.71414 43.5925 12.011 -0.1837
3674 194 3 33.8801 6.23202 42.4481 12.011 -0.23415
3675 194 1 34.8391 6.73723 42.4082 1.008 0.12909
3676 194 1 33.3063 6.16219 41.534 1.008 0.12909
3677 194 1 32.525 5.1849 43.6784 1.008 0.15086
3678 194 1 35.223 6.34593 44.5577 1.008 0.07222
3679 194 1 33.7718 6.44071 45.5638 1.008 0.07222
3680 194 1 34.7885 4.94015 47.2705 1.008 0.09202
3681 194 1 35.4958 3.43566 46.706 1.008 0.09202
3682 194 1 36.5768 6.24371 46.1239 1.008 0.10167
3683 194 1 37.3063 4.75519 45.5098 1.008 0.10167
3684 194 1 38.1684 5.92497 47.6773 1.008 0.08773
3685 194 1 36.792 5.13759 48.4451 1.008 0.08773
3686 194 1 38.0404 4.15007 47.6481 1.008 0.08773
3687 195 4 23.775 19.9334 2.19469 15.999 -0.35515
3688 195 2 22.8506 20.4795 1.27583 12.011 0.03297
3689 195 2 23.5087 18.5922 2.53025 12.011 0.01762
3690 195 2 22.1264 18.3817 3.14907 12.011 -0.23743
3691 195 2 21.9266 16.9238 3.48397 12.011 -0.24423
3692 195 3 23.2558 21.8977 0.927918 12.011 -0.1837
3693 195 3 22.4171 22.9083 1.08585 12.011 -0.23415
3694 195 1 21.452 22.6951 1.52337 1.008 0.12909
3695 195 1 22.7116 23.9487 1.04552 1.008 0.12909
3696 195 1 24.2821 22.0598 0.631138 1.008 0.15086
3697 195 1 21.8568 20.5148 1.72382 1.008 0.07222
3698 195 1 22.8013 19.9376 0.341232 1.008 0.07222
3699 195 1 23.6169 17.9796 1.63754 1.008 0.09202
3700 195 1 24.2858 18.2869 3.22983 1.008 0.09202
3701 195 1 21.3478 18.6317 2.43299 1.008 0.10167
3702 195 1 21.9879 18.9865 4.04401 1.008 0.10167
3703 195 1 20.8664 16.6924 3.45862 1.008 0.08773
3704 195 1 22.4276 16.3093 2.74026 1.008 0.08773
3705 195 1 22.325 16.6955 4.46767 1.008 0.08773
3706 196 4 37.4039 14.2115 37.8751 15.999 -0.35515
3707 196 2 37.1822 12.9076 37.4014 12.011 0.03297
3708 196 2 37.7424 15.1228 36.8576 12.011 0.01762
3709 196 2 39.0166 14.7371 36.117 12.011 -0.23743
3710 196 2 39.3577 15.7615 35.0672 12.011 -0.24423
3711 196 3 36.7895 12.0636 38.5788 12.011 -0.1837
3712 196 3 37.5079 11.0138 38.9296 12.011 -0.23415
3713 196 1 38.3919 10.7649 38.3567 1.008 0.12909
3714 196 1 37.2489 10.382 39.7686 1.008 0.12909
3715 196 1 35.8972 12.3594 39.1225 1.008 0.15086
3716 196 1 38.1103 12.4961 37.0083 1.008 0.07222
3717 196 1 36.411 12.8271 36.6372 1.008 0.07222
3718 196 1 36.9248 15.2022 36.1465 1.008 0.09202
3719 196 1 37.8629 16.0971 37.3334 1.008 0.09202
3720 196 1 38.899 13.7913 35.5971 1.008 0.10167
3721 196 1 39.8439 14.6543 36.8073 1.008 0.10167
3722 196 1 39.9376 15.2872 34.2802 1.008 0.08773
3723 196 1 38.4384 16.1458 34.637 1.008 0.08773
3724 196 1 39.9325 16.5736 35.5051 1.008 0.08773
3725 197 4 31.4465 29.2332 2.60878 15.999 -0.35515
3726 197 2 31.6499 30.1435 1.55671 12.011 0.03297
3727 197 2 32.1488 28.0251 2.44392 12.011 0.01762
3728 197 2 31.7381 27.2756 1.17522 12.011 -0.23743
3729 197 2 32.4976 25.9776 1.0683 12.011 -0.24423
3730 197 3 30.8806 31.3904 1.88567 12.011 -0.1837
3731 197 3 29.9274 31.8283 1.08369 12.011 -0.23415
3732 197 1 29.7018 31.2767 0.177835 1.008 0.12909
3733 197 1 29.3588 32.7256 1.2901 1.008 0.12909
3734 197 1 31.1414 31.9064 2.80607 1.008 0.15086
3735 197 1 31.231 29.7442 0.632723 1.008 0.07222
3736 197 1 32.6915 30.4085 1.38229 1.008 0.07222
3737 197 1 33.2217 28.2183 2.43427 1.008 0.09202
3738 197 1 31.9362 27.418 3.32471 1.008 0.09202
3739 197 1 32.004 27.8507 0.291606 1.008 0.10167
3740 197 1 30.6679 27.0709 1.14991 1.008 0.10167
3741 197 1 32.588 25.6984 0.0216341 1.008 0.08773
3742 197 1 33.4961 26.1231 1.46504 1.008 0.08773
3743 197 1 31.9901 25.1892 1.62031 1.008 0.08773
3744 198 4 49.2627 30.2024 27.1987 15.999 -0.35515
3745 198 2 48.1651 29.4674 26.7189 12.011 0.03297
3746 198 2 49.6909 31.2058 26.308 12.011 0.01762
3747 198 2 50.1394 30.6418 24.9586 12.011 -0.23743
3748 198 2 50.6175 31.758 24.0616 12.011 -0.24423
3749 198 3 47.7912 28.4737 27.7796 12.011 -0.1837
3750 198 3 47.8135 27.1776 27.5291 12.011 -0.23415
3751 198 1 48.1062 26.8338 26.5432 1.008 0.12909
3752 198 1 47.5465 26.435 28.2689 1.008 0.12909
3753 198 1 47.5093 28.871 28.7503 1.008 0.15086
3754 198 1 48.4534 28.9011 25.8337 1.008 0.07222
3755 198 1 47.2897 30.0645 26.4778 1.008 0.07222
3756 198 1 48.8989 31.9411 26.1601 1.008 0.09202
3757 198 1 50.5207 31.7206 26.7929 1.008 0.09202
3758 198 1 49.301 30.1822 24.4408 1.008 0.10167
3759 198 1 50.9314 29.9002 25.0681 1.008 0.10167
3760 198 1 50.478 31.466 23.0233 1.008 0.08773
3761 198 1 50.0225 32.6502 24.2465 1.008 0.08773
3762 198 1 51.6691 31.9705 24.245 1.008 0.08773
3763 199 4 23.0259 17.3347 21.6359 15.999 -0.35515
3764 199 2 23.4051 15.995 21.4955 12.011 0.03297
3765 199 2 21.7096 17.5934 21.2041 12.011 0.01762
3766 199 2 21.4929 17.3037 19.7371 12.011 -0.23743
3767 199 2 20.0755 17.6333 19.3483 12.011 -0.24423
3768 199 3 24.7987 15.8637 22.0343 12.011 -0.1837
3769 199 3 25.7843 15.4598 21.2553 12.011 -0.23415
3770 199 1 25.5757 15.2307 20.2163 1.008 0.12909
3771 199 1 26.8003 15.3526 21.6069 1.008 0.12909
3772 199 1 24.9534 16.1162 23.0798 1.008 0.15086
3773 199 1 23.4354 15.749 20.4385 1.008 0.07222
3774 199 1 22.7601 15.2779 21.9981 1.008 0.07222
3775 199 1 20.9961 17.0119 21.7904 1.008 0.09202
3776 199 1 21.5188 18.6463 21.4165 1.008 0.09202
3777 199 1 21.6269 16.2433 19.5536 1.008 0.10167
3778 199 1 22.1833 17.8748 19.1226 1.008 0.10167
3779 199 1 19.7986 17.0148 18.4999 1.008 0.08773
3780 199 1 19.4074 17.4054 20.1754 1.008 0.08773
3781 199 1 19.993 18.6854 19.0843 1.008 0.08773
3782 200 4 21.345 18.1112 23.7586 15.999 -0.35515
3783 200 2 20.464 19.0175 24.3183 12.011 0.03297
3784 200 2 21.6629 16.9792 24.5092 12.011 0.01762
3785 200 2 22.3262 17.3671 25.8104 12.011 -0.23743
3786 200 2 22.6451 16.1357 26.5914 12.011 -0.24423
3787 200 3 20.2205 20.1018 23.311 12.011 -0.1837
3788 200 3 20.5403 21.3425 23.5884 12.011 -0.23415
3789 200 1 21.0081 21.5198 24.5321 1.008 0.12909
3790 200 1 20.3711 22.1864 22.9478 1.008 0.12909
3791 200 1 19.7897 19.8462 22.3552 1.008 0.15086
3792 200 1 20.9503 19.4575 25.1823 1.008 0.07222
3793 200 1 19.5204 18.5686 24.596 1.008 0.07222
3794 200 1 20.7585 16.4051 24.6746 1.008 0.09202
3795 200 1 22.337 16.3614 23.9166 1.008 0.09202
3796 200 1 21.6421 17.9445 26.4189 1.008 0.10167
3797 200 1 23.2377 17.9375 25.6559 1.008 0.10167
3798 200 1 22.6231 16.388 27.6395 1.008 0.08773
3799 200 1 21.8791 15.3856 26.4305 1.008 0.08773
3800 200 1 23.621 15.7462 26.3174 1.008 0.08773
3801 201 4 21.5214 46.9711 10.3938 15.999 -0.35515
3802 201 2 22.0859 48.1924 9.99155 12.011 0.03297
3803 201 2 22.2243 45.8576 9.89936 12.011 0.01762
3804 201 2 22.2565 45.8088 8.37069 12.011 -0.23743
3805 201 2 23.0017 44.5819 7.90378 12.011 -0.24423
3806 201 3 21.2583 49.2745 10.6177 12.011 -0.1837
3807 201 3 20.5967 50.087 9.83839 12.011 -0.23415
3808 201 1 20.7085 50.0896 8.76024 1.008 0.12909
3809 201 1 19.8627 50.7643 10.2302 1.008 0.12909
3810 201 1 21.1727 49.2898 11.7052 1.008 0.15086
3811 201 1 21.9768 48.3134 8.91446 1.008 0.07222
3812 201 1 23.1185 48.343 10.2727 1.008 0.07222
3813 201 1 23.2391 45.8614 10.2935 1.008 0.09202
3814 201 1 21.73 44.9694 10.2935 1.008 0.09202
3815 201 1 22.8049 46.6598 7.97413 1.008 0.10167
3816 201 1 21.2531 45.8097 7.94314 1.008 0.10167
3817 201 1 23.4286 44.7755 6.92254 1.008 0.08773
3818 201 1 23.8149 44.3677 8.59308 1.008 0.08773
3819 201 1 22.3305 43.7267 7.85113 1.008 0.08773
3820 202 4 31.7883 19.0257 36.3806 15.999 -0.35515
3821 202 2 31.4434 18.2727 35.2433 12.011 0.03297
3822 202 2 30.7452 19.863 36.8156 12.011 0.01762
3823 202 2 30.3342 20.895 35.7643 12.011 -0.23743
3824 202 2 29.2425 21.7853 36.3063 12.011 -0.24423
3825 202 3 32.6108 17.393 34.9072 12.011 -0.1837
3826 202 3 33.2257 17.4908 33.7428 12.011 -0.23415
3827 202 1 32.8716 18.2149 33.0184 1.008 0.12909
3828 202 1 34.075 16.8753 33.4775 1.008 0.12909
3829 202 1 32.9314 16.6908 35.6704 1.008 0.15086
3830 202 1 31.2894 18.9344 34.3912 1.008 0.07222
3831 202 1 30.5607 17.6467 35.3647 1.008 0.07222
3832 202 1 29.8846 19.2688 37.1185 1.008 0.09202
3833 202 1 31.1025 20.3588 37.7118 1.008 0.09202
3834 202 1 29.9086 20.3958 34.8973 1.008 0.10167
3835 202 1 31.1756 21.5073 35.4377 1.008 0.10167
3836 202 1 28.6405 22.1556 35.4797 1.008 0.08773
3837 202 1 28.5964 21.2075 36.9641 1.008 0.08773
3838 202 1 29.6689 22.6241 36.8521 1.008 0.08773
3839 203 4 46.0601 42.1334 18.4534 15.999 -0.35515
3840 203 2 46.7187 43.2662 17.9422 12.011 0.03297
3841 203 2 46.5737 40.9233 17.9511 12.011 0.01762
3842 203 2 46.4453 40.8126 16.431 12.011 -0.23743
3843 203 2 46.9792 39.4821 15.9596 12.011 -0.24423
3844 203 3 46.1017 44.473 18.5883 12.011 -0.1837
3845 203 3 45.5188 45.4072 17.8599 12.011 -0.23415
3846 203 1 45.4887 45.2981 16.7813 1.008 0.12909
3847 203 1 45.0722 46.2922 18.2944 1.008 0.12909
3848 203 1 46.1584 44.5377 19.6714 1.008 0.15086
3849 203 1 46.5375 43.3511 16.8702 1.008 0.07222
3850 203 1 47.7938 43.2835 18.1164 1.008 0.07222
3851 203 1 47.6161 40.8083 18.249 1.008 0.09202
3852 203 1 46.0126 40.1221 18.4297 1.008 0.09202
3853 203 1 47.0557 41.5691 15.9435 1.008 0.10167
3854 203 1 45.4134 40.9275 16.0993 1.008 0.10167
3855 203 1 47.3302 39.5819 14.9356 1.008 0.08773
3856 203 1 47.8245 39.1914 16.5796 1.008 0.08773
3857 203 1 46.205 38.7192 16.0119 1.008 0.08773
3858 204 4 7.44795 24.6662 21.3731 15.999 -0.35515
3859 204 2 6.74157 24.646 20.1576 12.011 0.03297
3860 204 2 8.7598 25.1595 21.2454 12.011 0.01762
3861 204 2 9.6144 24.3215 20.2926 12.011 -0.23743
3862 204 2 11.0148 24.8815 20.2229 12.011 -0.24423
3863 204 3 5.35768 24.1413 20.4491 12.011 -0.1837
3864 204 3 4.9009 23.0464 19.8694 12.011 -0.23415
3865 204 1 5.54055 22.5085 19.179 1.008 0.12909
3866 204 1 3.91016 22.6548 20.0581 1.008 0.12909
3867 204 1 4.76121 24.7104 21.1563 1.008 0.15086
3868 204 1 7.20281 23.9358 19.471 1.008 0.07222
3869 204 1 6.66588 25.6127 19.6625 1.008 0.07222
3870 204 1 8.73555 26.1971 20.9112 1.008 0.09202
3871 204 1 9.19468 25.1529 22.2454 1.008 0.09202
3872 204 1 9.21983 24.3762 19.2807 1.008 0.10167
3873 204 1 9.65657 23.2752 20.5968 1.008 0.10167
3874 204 1 11.4522 24.6297 19.2602 1.008 0.08773
3875 204 1 10.9755 25.9655 20.3047 1.008 0.08773
3876 204 1 11.6286 24.4758 21.025 1.008 0.08773
3877 205 4 49.727 47.382 19.8993 15.999 -0.35515
3878 205 2 48.9292 48.1295 19.015 12.011 0.03297
3879 205 2 49.915 48.0108 21.1442 12.011 0.01762
3880 205 2 50.6075 49.3694 21.0212 12.011 -0.23743
3881 205 2 50.8078 49.9762 22.3889 12.011 -0.24423
3882 205 3 48.7826 47.3266 17.755 12.011 -0.1837
3883 205 3 49.1979 47.8044 16.5956 12.011 -0.23415
3884 205 1 49.6504 48.789 16.5602 1.008 0.12909
3885 205 1 49.1021 47.2531 15.6703 1.008 0.12909
3886 205 1 48.3255 46.3457 17.8429 1.008 0.15086
3887 205 1 49.4371 49.0561 18.7463 1.008 0.07222
3888 205 1 47.9381 48.3718 19.3953 1.008 0.07222
3889 205 1 48.9561 48.1253 21.6502 1.008 0.09202
3890 205 1 50.521 47.3337 21.7472 1.008 0.09202
3891 205 1 49.9797 50.0684 20.4728 1.008 0.10167
3892 205 1 51.5698 49.2914 20.5134 1.008 0.10167
3893 205 1 50.8372 51.0596 22.2974 1.008 0.08773
3894 205 1 49.9685 49.7118 23.028 1.008 0.08773
3895 205 1 51.7355 49.6186 22.8317 1.008 0.08773
3896 206 4 45.8047 16.341 21.064 15.999 -0.35515
3897 206 2 44.9545 16.1031 22.1581 12.011 0.03297
3898 206 2 45.5819 15.4615 19.99 12.011 0.01762
3899 206 2 45.8255 13.9995 20.3649 12.011 -0.23743
3900 206 2 45.6066 13.1065 19.1701 12.011 -0.24423
3901 206 3 45.2678 17.1314 23.2045 12.011 -0.1837
3902 206 3 45.6923 16.7735 24.4022 12.011 -0.23415
3903 206 1 45.8088 15.7221 24.6335 1.008 0.12909
3904 206 1 45.9279 17.492 25.1721 1.008 0.12909
3905 206 1 45.1349 18.174 22.9252 1.008 0.15086
3906 206 1 45.1771 15.1317 22.5911 1.008 0.07222
3907 206 1 43.891 16.1415 21.9304 1.008 0.07222
3908 206 1 44.5662 15.5866 19.6115 1.008 0.09202
3909 206 1 46.2663 15.7641 19.1972 1.008 0.09202
3910 206 1 45.1018 13.679 21.1076 1.008 0.10167
3911 206 1 46.8296 13.8406 20.7569 1.008 0.10167
3912 206 1 45.3066 12.118 19.5069 1.008 0.08773
3913 206 1 44.8023 13.5102 18.5647 1.008 0.08773
3914 206 1 46.5133 13.0289 18.5765 1.008 0.08773
3915 207 4 36.0715 1.79124 28.0192 15.999 -0.35515
3916 207 2 35.9118 1.99864 29.3998 12.011 0.03297
3917 207 2 37.2323 2.38779 27.4961 12.011 0.01762
3918 207 2 37.2502 3.90462 27.6801 12.011 -0.23743
3919 207 2 38.4974 4.49064 27.0701 12.011 -0.24423
3920 207 3 34.6662 1.27933 29.827 12.011 -0.1837
3921 207 3 33.6597 1.93623 30.3716 12.011 -0.23415
3922 207 1 33.7356 3.00879 30.5111 1.008 0.12909
3923 207 1 32.7503 1.44435 30.6891 1.008 0.12909
3924 207 1 34.6323 0.20587 29.6613 1.008 0.15086
3925 207 1 35.7476 3.05776 29.5975 1.008 0.07222
3926 207 1 36.7446 1.64955 30.0081 1.008 0.07222
3927 207 1 38.1151 1.94566 27.9566 1.008 0.09202
3928 207 1 37.2571 2.13763 26.4352 1.008 0.09202
3929 207 1 37.2827 4.16188 28.7345 1.008 0.10167
3930 207 1 36.3752 4.37205 27.2348 1.008 0.10167
3931 207 1 38.7477 5.41433 27.5854 1.008 0.08773
3932 207 1 39.3163 3.7889 27.1998 1.008 0.08773
3933 207 1 38.3492 4.68869 26.0107 1.008 0.08773
3934 208 4 48.0768 39.2411 3.60239 15.999 -0.35515
3935 208 2 49.4455 39.3051 3.2864 12.011 0.03297
3936 208 2 47.5674 40.4506 4.11016 12.011 0.01762
3937 208 2 48.2623 40.8886 5.40054 12.011 -0.23743
3938 208 2 47.6528 42.1729 5.90871 12.011 -0.24423
3939 208 3 49.8395 37.9695 2.72394 12.011 -0.1837
3940 208 3 50.7746 37.2404 3.3045 12.011 -0.23415
3941 208 1 51.2617 37.615 4.19811 1.008 0.12909
3942 208 1 51.0842 36.2766 2.92212 1.008 0.12909
3943 208 1 49.3216 37.6356 1.82888 1.008 0.15086
3944 208 1 50.0321 39.4558 4.19307 1.008 0.07222
3945 208 1 49.7083 40.0805 2.56845 1.008 0.07222
3946 208 1 47.651 41.2341 3.35652 1.008 0.09202
3947 208 1 46.5045 40.2892 4.29148 1.008 0.09202
3948 208 1 49.31 41.1112 5.21159 1.008 0.10167
3949 208 1 48.2037 40.1249 6.1767 1.008 0.10167
3950 208 1 48.395 42.7153 6.48924 1.008 0.08773
3951 208 1 47.3602 42.7935 5.06493 1.008 0.08773
3952 208 1 46.7856 41.966 6.53075 1.008 0.08773
3953 209 4 3.18222 40.1829 30.0225 15.999 -0.35515
3954 209 2 2.81515 38.8824 30.3939 12.011 0.03297
3955 209 2 4.21676 40.2569 29.083 12.011 0.01762
3956 209 2 5.50018 39.5764 29.5522 12.011 -0.23743
3957 209 2 6.55372 39.6973 28.4814 12.011 -0.24423
3958 209 3 1.69025 38.961 31.3894 12.011 -0.1837
3959 209 3 1.8031 38.402 32.5816 12.011 -0.23415
3960 209 1 2.7469 37.9447 32.8625 1.008 0.12909
3961 209 1 1.04411 38.4996 33.347 1.008 0.12909
3962 209 1 0.800885 39.5143 31.0972 1.008 0.15086
3963 209 1 3.64791 38.3838 30.8899 1.008 0.07222
3964 209 1 2.48128 38.2829 29.5553 1.008 0.07222
3965 209 1 3.86406 39.8118 28.1557 1.008 0.09202
3966 209 1 4.39461 41.3161 28.8946 1.008 0.09202
3967 209 1 5.33484 38.5109 29.6909 1.008 0.10167
3968 209 1 5.87722 39.9973 30.4856 1.008 0.10167
3969 209 1 7.23877 38.8613 28.563 1.008 0.08773
3970 209 1 6.09021 39.648 27.5002 1.008 0.08773
3971 209 1 7.10085 40.6308 28.5889 1.008 0.08773
3972 210 4 10.1036 9.92283 18.7202 15.999 -0.35515
3973 210 2 10.0227 9.82705 17.3204 12.011 0.03297
3974 210 2 11.3185 10.4707 19.1733 12.011 0.01762
3975 210 2 12.5324 9.64043 18.7619 12.011 -0.23743
3976 210 2 13.8012 10.2651 19.2891 12.011 -0.24423
3977 210 3 8.67148 9.26977 16.983 12.011 -0.1837
3978 210 3 8.55547 8.13762 16.3145 12.011 -0.23415
3979 210 1 9.45179 7.60975 16.008 1.008 0.12909
3980 210 1 7.59675 7.71034 16.0534 1.008 0.12909
3981 210 1 7.80631 9.83647 17.3144 1.008 0.15086
3982 210 1 10.766 9.12219 16.9475 1.008 0.07222
3983 210 1 10.1412 10.772 16.7984 1.008 0.07222
3984 210 1 11.4227 11.4942 18.8152 1.008 0.09202
3985 210 1 11.2568 10.517 20.2592 1.008 0.09202
3986 210 1 12.627 9.6252 17.6863 1.008 0.10167
3987 210 1 12.4631 8.60718 19.0923 1.008 0.10167
3988 210 1 14.6299 10.0021 18.6343 1.008 0.08773
3989 210 1 13.7011 11.3478 19.2847 1.008 0.08773
3990 210 1 13.999 9.91286 20.2982 1.008 0.08773
3991 211 4 35.2448 38.528 10.3973 15.999 -0.35515
3992 211 2 35.5195 39.5852 11.2812 12.011 0.03297
3993 211 2 35.451 37.2594 10.969 12.011 0.01762
3994 211 2 36.8955 37.0449 11.4226 12.011 -0.23743
3995 211 2 37.0635 35.6583 11.9934 12.011 -0.24423
3996 211 3 35.2148 40.8655 10.5601 12.011 -0.1837
3997 211 3 36.1532 41.7748 10.376 12.011 -0.23415
3998 211 1 37.157 41.5852 10.7416 1.008 0.12909
3999 211 1 35.9657 42.7078 9.86314 1.008 0.12909
4000 211 1 34.1973 41.0092 10.2074 1.008 0.15086
4001 211 1 36.581 39.6026 11.5286 1.008 0.07222
4002 211 1 34.9474 39.5548 12.2058 1.008 0.07222
4003 211 1 34.7707 37.1147 11.8083 1.008 0.09202
4004 211 1 35.1834 36.5282 10.2059 1.008 0.09202
4005 211 1 37.1493 37.7341 12.2242 1.008 0.10167
4006 211 1 37.6001 37.1867 10.6052 1.008 0.10167
4007 211 1 37.8797 35.6642 12.7118 1.008 0.08773
4008 211 1 36.1527 35.3712 12.5135 1.008 0.08773
4009 211 1 37.2757 34.9431 11.2005 1.008 0.08773
4010 212 4 20.7378 28.7104 41.0622 15.999 -0.35515
4011 212 2 20.2688 29.069 42.3389 12.011 0.03297
4012 212 2 19.8957 29.1406 40.0202 12.011 0.01762
4013 212 2 18.4725 28.5882 40.1206 12.011 -0.23743
4014 212 2 17.6434 29.0717 38.9597 12.011 -0.24423
4015 212 3 21.2609 28.5648 43.3471 12.011 -0.1837
4016 212 3 20.8967 27.7227 44.2952 12.011 -0.23415
4017 212 1 19.8687 27.3823 44.3335 1.008 0.12909
4018 212 1 21.5879 27.3399 45.0316 1.008 0.12909
4019 212 1 22.2819 28.9171 43.2495 1.008 0.15086
4020 212 1 19.3165 28.5838 42.5577 1.008 0.07222
4021 212 1 20.1425 30.1368 42.4656 1.008 0.07222
4022 212 1 19.8686 30.2292 40.0068 1.008 0.09202
4023 212 1 20.3601 28.813 39.0895 1.008 0.09202
4024 212 1 17.98 28.9581 41.0171 1.008 0.10167
4025 212 1 18.4481 27.5017 40.1287 1.008 0.10167
4026 212 1 16.597 29.0945 39.2569 1.008 0.08773
4027 212 1 17.9515 30.0804 38.6976 1.008 0.08773
4028 212 1 17.7653 28.4164 38.0997 1.008 0.08773
4029 213 4 47.7702 38.1281 10.8694 15.999 -0.35515
4030 213 2 48.395 36.89 11.1041 12.011 0.03297
4031 213 2 46.7006 38.3863 11.7461 12.011 0.01762
4032 213 2 45.5847 37.3475 11.6338 12.011 -0.23743
4033 213 2 44.4542 37.6946 12.5701 12.011 -0.24423
4034 213 3 49.5461 36.7794 10.1457 12.011 -0.1837
4035 213 3 49.6291 35.7891 9.28637 12.011 -0.23415
4036 213 1 48.8592 35.05 9.30136 1.008 0.12909
4037 213 1 50.4 35.6728 8.54629 1.008 0.12909
4038 213 1 50.3124 37.5381 10.1832 1.008 0.15086
4039 213 1 47.7022 36.0789 10.8829 1.008 0.07222
4040 213 1 48.775 36.7562 12.1143 1.008 0.07222
4041 213 1 47.0632 38.432 12.7728 1.008 0.09202
4042 213 1 46.3198 39.376 11.4926 1.008 0.09202
4043 213 1 45.9423 36.3685 11.944 1.008 0.10167
4044 213 1 45.196 37.2717 10.6196 1.008 0.10167
4045 213 1 43.9271 36.7837 12.8444 1.008 0.08773
4046 213 1 44.8595 38.1398 13.4755 1.008 0.08773
4047 213 1 43.764 38.3885 12.0936 1.008 0.08773
4048 214 4 19.787 47.4922 43.5926 15.999 -0.35515
4049 214 2 20.1911 47.8952 42.3071 12.011 0.03297
4050 214 2 18.8816 46.4158 43.5816 12.011 0.01762
4051 214 2 17.5856 46.7581 42.8464 12.011 -0.23743
4052 214 2 16.6374 45.5851 42.8931 12.011 -0.24423
4053 214 3 21.1882 49.0071 42.4733 12.011 -0.1837
4054 214 3 20.961 50.2034 41.9688 12.011 -0.23415
4055 214 1 20.0394 50.3799 41.4277 1.008 0.12909
4056 214 1 21.6622 51.0209 42.0704 1.008 0.12909
4057 214 1 22.0955 48.7905 43.0261 1.008 0.15086
4058 214 1 19.3401 48.3091 41.7686 1.008 0.07222
4059 214 1 20.6397 47.107 41.7036 1.008 0.07222
4060 214 1 19.3463 45.5373 43.133 1.008 0.09202
4061 214 1 18.6716 46.1725 44.6239 1.008 0.09202
4062 214 1 17.7833 46.9403 41.7927 1.008 0.10167
4063 214 1 17.0978 47.6376 43.2681 1.008 0.10167
4064 214 1 15.9787 45.6236 42.0287 1.008 0.08773
4065 214 1 17.2057 44.6588 42.8474 1.008 0.08773
4066 214 1 16.0465 45.6091 43.8069 1.008 0.08773
4067 215 4 42.6436 8.99611 42.5399 15.999 -0.35515
4068 215 2 42.8736 8.33433 43.7573 12.011 0.03297
4069 215 2 42.3859 10.3714 42.7001 12.011 0.01762
4070 215 2 41.1514 10.6573 43.5401 12.011 -0.23743
4071 215 2 40.9252 12.1458 43.6444 12.011 -0.24423
4072 215 3 43.1678 6.89792 43.4357 12.011 -0.1837
4073 215 3 42.4053 5.9297 43.9033 12.011 -0.23415
4074 215 1 41.5597 6.18259 44.5298 1.008 0.12909
4075 215 1 42.5848 4.88764 43.6863 1.008 0.12909
4076 215 1 44.0258 6.69593 42.805 1.008 0.15086
4077 215 1 41.9641 8.34896 44.3558 1.008 0.07222
4078 215 1 43.6906 8.73963 44.3529 1.008 0.07222
4079 215 1 43.2309 10.8654 43.1732 1.008 0.09202
4080 215 1 42.2769 10.7863 41.6974 1.008 0.09202
4081 215 1 41.3023 10.3029 44.5562 1.008 0.10167
4082 215 1 40.2696 10.1777 43.1225 1.008 0.10167
4083 215 1 40.3894 12.3577 44.5662 1.008 0.08773
4084 215 1 41.8832 12.6609 43.6812 1.008 0.08773
4085 215 1 40.3485 12.5009 42.7923 1.008 0.08773
4086 216 4 35.619 49.3482 26.8437 15.999 -0.35515
4087 216 2 35.3202 48.03 27.2303 12.011 0.03297
4088 216 2 36.9947 49.5783 26.6624 12.011 0.01762
4089 216 2 37.805 49.3361 27.9367 12.011 -0.23743
4090 216 2 39.263 49.6293 27.6828 12.011 -0.24423
4091 216 3 33.8271 47.9225 27.3448 12.011 -0.1837
4092 216 3 33.2604 47.5974 28.491 12.011 -0.23415
4093 216 1 33.8838 47.3976 29.3552 1.008 0.12909
4094 216 1 32.1884 47.511 28.6065 1.008 0.12909
4095 216 1 33.2445 48.1293 26.451 1.008 0.15086
4096 216 1 35.7315 47.831 28.22 1.008 0.07222
4097 216 1 35.6763 47.2656 26.5422 1.008 0.07222
4098 216 1 37.3711 48.9501 25.8547 1.008 0.09202
4099 216 1 37.0974 50.6159 26.3419 1.008 0.09202
4100 216 1 37.7535 48.2894 28.2273 1.008 0.10167
4101 216 1 37.4493 49.948 28.7666 1.008 0.10167
4102 216 1 39.8649 49.0365 28.3608 1.008 0.08773
4103 216 1 39.521 49.3414 26.6674 1.008 0.08773
4104 216 1 39.4723 50.6861 27.8357 1.008 0.08773
4105 217 4 20.072 24.0689 5.20669 15.999 -0.35515
4106 217 2 20.5696 23.8693 3.91306 12.011 0.03297
4107 217 2 19.3414 25.2577 5.34449 12.011 0.01762
4108 217 2 20.1597 26.5042 5.02642 12.011 -0.23743
4109 217 2 19.3175 27.7409 5.22002 12.011 -0.24423
4110 217 3 21.2933 22.5605 4.00896 12.011 -0.1837
4111 217 3 22.6162 22.5097 3.802 12.011 -0.23415
4112 217 1 23.1123 23.3999 3.45979 1.008 0.12909
4113 217 1 23.1305 21.5823 3.67257 1.008 0.12909
4114 217 1 20.7201 21.662 4.14922 1.008 0.15086
4115 217 1 21.2987 24.6381 3.66288 1.008 0.07222
4116 217 1 19.8082 23.8497 3.12627 1.008 0.07222
4117 217 1 18.4752 25.2358 4.69897 1.008 0.09202
4118 217 1 18.9767 25.2856 6.36986 1.008 0.09202
4119 217 1 20.4564 26.5076 3.98054 1.008 0.10167
4120 217 1 21.0508 26.5696 5.64772 1.008 0.10167
4121 217 1 19.6957 28.5345 4.57945 1.008 0.08773
4122 217 1 18.2902 27.5303 4.93053 1.008 0.08773
4123 217 1 19.3468 28.0653 6.25833 1.008 0.08773
4124 218 4 45.8209 39.7543 22.3604 15.999 -0.35515
4125 218 2 46.979 40.5201 22.1392 12.011 0.03297
4126 218 2 44.7715 40.0746 21.4784 12.011 0.01762
4127 218 2 44.3243 41.5324 21.5961 12.011 -0.23743
4128 218 2 43.1792 41.8043 20.6499 12.011 -0.24423
4129 218 3 48.0223 40.0509 23.109 12.011 -0.1837
4130 218 3 48.5437 40.876 23.9986 12.011 -0.23415
4131 218 1 48.2121 41.9075 24.0234 1.008 0.12909
4132 218 1 49.2939 40.5651 24.7151 1.008 0.12909
4133 218 1 48.3116 39.004 23.0516 1.008 0.15086
4134 218 1 46.7824 41.5673 22.367 1.008 0.07222
4135 218 1 47.3848 40.4502 21.132 1.008 0.07222
4136 218 1 45.0685 39.8597 20.4536 1.008 0.09202
4137 218 1 43.9441 39.4066 21.7178 1.008 0.09202
4138 218 1 45.1265 42.2016 21.2915 1.008 0.10167
4139 218 1 44.0225 41.784 22.6128 1.008 0.10167
4140 218 1 43.1846 42.8579 20.3801 1.008 0.08773
4141 218 1 43.318 41.2243 19.7402 1.008 0.08773
4142 218 1 42.2304 41.546 21.1157 1.008 0.08773
4143 219 4 23.7589 22.3983 39.7716 15.999 -0.35515
4144 219 2 24.4383 23.0306 40.8258 12.011 0.03297
4145 219 2 22.4706 21.9543 40.1274 12.011 0.01762
4146 219 2 22.4874 20.9387 41.2702 12.011 -0.23743
4147 219 2 21.0833 20.4756 41.576 12.011 -0.24423
4148 219 3 25.7637 23.4954 40.3084 12.011 -0.1837
4149 219 3 26.8843 23.0636 40.853 12.011 -0.23415
4150 219 1 26.8367 22.3705 41.6844 1.008 0.12909
4151 219 1 27.8561 23.3738 40.5053 1.008 0.12909
4152 219 1 25.7511 24.1911 39.475 1.008 0.15086
4153 219 1 24.6249 22.3299 41.6389 1.008 0.07222
4154 219 1 23.9336 23.8977 41.2214 1.008 0.07222
4155 219 1 21.8392 22.8002 40.3939 1.008 0.09202
4156 219 1 22.0399 21.5057 39.2327 1.008 0.09202
4157 219 1 22.8532 21.404 42.1842 1.008 0.10167
4158 219 1 23.113 20.0762 41.0409 1.008 0.10167
4159 219 1 21.0292 20.1691 42.6182 1.008 0.08773
4160 219 1 20.3908 21.3021 41.4307 1.008 0.08773
4161 219 1 20.8076 19.6434 40.9314 1.008 0.08773
4162 220 4 25.0429 21.2161 9.1008 15.999 -0.35515
4163 220 2 25.5519 21.4884 10.3837 12.011 0.03297
4164 220 2 23.6377 21.1517 9.05482 12.011 0.01762
4165 220 2 23.0595 20.0628 9.96127 12.011 -0.23743
4166 220 2 21.5556 20.039 9.85539 12.011 -0.24423
4167 220 3 27.0512 21.5547 10.2738 12.011 -0.1837
4168 220 3 27.8211 20.7343 10.968 12.011 -0.23415
4169 220 1 27.3563 19.9981 11.6169 1.008 0.12909
4170 220 1 28.8994 20.7383 10.8979 1.008 0.12909
4171 220 1 27.4647 22.2878 9.58873 1.008 0.15086
4172 220 1 25.3154 20.6636 11.0578 1.008 0.07222
4173 220 1 25.1901 22.4125 10.8223 1.008 0.07222
4174 220 1 23.2234 22.1226 9.32503 1.008 0.09202
4175 220 1 23.3657 20.96 8.01596 1.008 0.09202
4176 220 1 23.278 20.2813 11.0011 1.008 0.10167
4177 220 1 23.4565 19.0776 9.7179 1.008 0.10167
4178 220 1 21.1339 19.654 10.7792 1.008 0.08773
4179 220 1 21.1899 21.0538 9.71006 1.008 0.08773
4180 220 1 21.2494 19.4107 9.02202 1.008 0.08773
4181 221 4 9.23772 14.7793 29.91 15.999 -0.35515
4182 221 2 10.4916 15.2617 30.3238 12.011 0.03297
4183 221 2 9.21579 14.3751 28.5617 12.011 0.01762
4184 221 2 9.54913 15.5156 27.5985 12.011 -0.23743
4185 221 2 9.47763 15.0291 26.1712 12.011 -0.24423
4186 221 3 10.3795 15.6114 31.7796 12.011 -0.1837
4187 221 3 10.6011 16.8435 32.1981 12.011 -0.23415
4188 221 1 10.8645 17.6014 31.4724 1.008 0.12909
4189 221 1 10.5334 17.1301 33.2384 1.008 0.12909
4190 221 1 10.1052 14.8124 32.4615 1.008 0.15086
4191 221 1 10.7302 16.1819 29.7901 1.008 0.07222
4192 221 1 11.3124 14.5582 30.193 1.008 0.07222
4193 221 1 9.90737 13.5459 28.4106 1.008 0.09202
4194 221 1 8.2117 13.9985 28.364 1.008 0.09202
4195 221 1 10.5711 15.8549 27.7487 1.008 0.10167
4196 221 1 8.87737 16.3654 27.7267 1.008 0.10167
4197 221 1 10.1381 15.6345 25.5549 1.008 0.08773
4198 221 1 9.81679 13.9969 26.1234 1.008 0.08773
4199 221 1 8.4586 15.1003 25.7955 1.008 0.08773
4200 222 4 42.3928 39.3606 36.3317 15.999 -0.35515
4201 222 2 43.2471 38.8667 37.3336 12.011 0.03297
4202 222 2 41.4267 40.2586 36.8237 12.011 0.01762
4203 222 2 40.514 39.618 37.8703 12.011 -0.23743
4204 222 2 39.4757 40.6097 38.3328 12.011 -0.24423
4205 222 3 44.2613 37.9851 36.6683 12.011 -0.1837
4206 222 3 44.386 36.726 37.0307 12.011 -0.23415
4207 222 1 43.7241 36.3232 37.785 1.008 0.12909
4208 222 1 45.0874 36.0568 36.5523 1.008 0.12909
4209 222 1 44.8788 38.4168 35.8868 1.008 0.15086
4210 222 1 42.6954 38.2588 38.043 1.008 0.07222
4211 222 1 43.7688 39.6277 37.9044 1.008 0.07222
4212 222 1 41.9094 41.1426 37.2419 1.008 0.09202
4213 222 1 40.8417 40.5889 35.9651 1.008 0.09202
4214 222 1 41.0839 39.3462 38.7559 1.008 0.10167
4215 222 1 40.0179 38.7279 37.4865 1.008 0.10167
4216 222 1 39.1669 40.3582 39.3451 1.008 0.08773
4217 222 1 39.9127 41.6053 38.3458 1.008 0.08773
4218 222 1 38.6128 40.5976 37.6701 1.008 0.08773
4219 223 4 41.9264 13.7638 37.0405 15.999 -0.35515
4220 223 2 41.5204 13.0104 38.1573 12.011 0.03297
4221 223 2 42.2064 12.9865 35.9055 12.011 0.01762
4222 223 2 43.3776 12.0416 36.1577 12.011 -0.23743
4223 223 2 43.685 11.2527 34.9106 12.011 -0.24423
4224 223 3 41.1738 13.9745 39.2573 12.011 -0.1837
4225 223 3 41.8341 13.962 40.3995 12.011 -0.23415
4226 223 1 42.6321 13.2451 40.5366 1.008 0.12909
4227 223 1 41.6064 14.6368 41.2135 1.008 0.12909
4228 223 1 40.3617 14.6745 39.072 1.008 0.15086
4229 223 1 42.3647 12.4183 38.5044 1.008 0.07222
4230 223 1 40.6696 12.3499 37.9905 1.008 0.07222
4231 223 1 41.3236 12.4283 35.5946 1.008 0.09202
4232 223 1 42.4442 13.6837 35.1014 1.008 0.09202
4233 223 1 43.1185 11.3137 36.9213 1.008 0.10167
4234 223 1 44.2694 12.5783 36.4815 1.008 0.10167
4235 223 1 44.1382 10.3053 35.1909 1.008 0.08773
4236 223 1 42.7616 11.0431 34.3794 1.008 0.08773
4237 223 1 44.3589 11.811 34.265 1.008 0.08773
4238 224 4 32.6203 27.5965 29.0372 15.999 -0.35515
4239 224 2 31.3743 28.214 29.2418 12.011 0.03297
4240 224 2 33.6482 28.1451 29.827 12.011 0.01762
4241 224 2 33.8814 29.6281 29.5398 12.011 -0.23743
4242 224 2 35.0084 30.1505 30.3895 12.011 -0.24423
4243 224 3 30.3733 27.5063 28.3752 12.011 -0.1837
4244 224 3 29.7026 28.1576 27.444 12.011 -0.23415
4245 224 1 29.8802 29.2176 27.3157 1.008 0.12909
4246 224 1 28.9733 27.6795 26.8049 1.008 0.12909
4247 224 1 30.2343 26.4437 28.5482 1.008 0.15086
4248 224 1 31.4158 29.2479 28.9028 1.008 0.07222
4249 224 1 31.024 28.1947 30.272 1.008 0.07222
4250 224 1 33.4244 27.9997 30.8843 1.008 0.09202
4251 224 1 34.5511 27.5748 29.6065 1.008 0.09202
4252 224 1 33.0075 30.2117 29.8132 1.008 0.10167
4253 224 1 34.1025 29.8152 28.4895 1.008 0.10167
4254 224 1 34.8681 31.2154 30.5503 1.008 0.08773
4255 224 1 34.9924 29.653 31.3571 1.008 0.08773
4256 224 1 35.9639 29.9751 29.8988 1.008 0.08773
4257 225 4 35.5009 38.7852 27.717 15.999 -0.35515
4258 225 2 35.802 37.9869 26.6001 12.011 0.03297
4259 225 2 34.3243 39.5407 27.555 12.011 0.01762
4260 225 2 34.3981 40.499 26.3647 12.011 -0.23743
4261 225 2 33.1208 41.2914 26.2581 12.011 -0.24423
4262 225 3 37.0414 37.2092 26.9122 12.011 -0.1837
4263 225 3 38.1354 37.3382 26.1851 12.011 -0.23415
4264 225 1 38.124 38.0107 25.3363 1.008 0.12909
4265 225 1 39.0485 36.7974 26.3981 1.008 0.12909
4266 225 1 36.9963 36.5519 27.7717 1.008 0.15086
4267 225 1 36.0317 38.6115 25.7392 1.008 0.07222
4268 225 1 35.0217 37.2857 26.3255 1.008 0.07222
4269 225 1 33.4685 38.8747 27.4451 1.008 0.09202
4270 225 1 34.1804 40.1005 28.4797 1.008 0.09202
4271 225 1 34.4771 39.947 25.4324 1.008 0.10167
4272 225 1 35.2445 41.1822 26.4422 1.008 0.10167
4273 225 1 32.9641 41.5944 25.227 1.008 0.08773
4274 225 1 32.2784 40.6786 26.5698 1.008 0.08773
4275 225 1 33.1809 42.1738 26.8814 1.008 0.08773
4276 226 4 6.00155 38.711 7.7771 15.999 -0.35515
4277 226 2 5.87941 38.2286 6.46694 12.011 0.03297
4278 226 2 5.44697 39.9917 7.95336 12.011 0.01762
4279 226 2 6.13052 41.0439 7.09062 12.011 -0.23743
4280 226 2 5.51986 42.3995 7.34298 12.011 -0.24423
4281 226 3 6.46687 36.8553 6.4294 12.011 -0.1837
4282 226 3 7.49771 36.5521 5.67207 12.011 -0.23415
4283 226 1 7.92482 37.3282 5.05569 1.008 0.12909
4284 226 1 7.92746 35.5604 5.63587 1.008 0.12909
4285 226 1 5.99755 36.1256 7.04654 1.008 0.15086
4286 226 1 6.48708 38.8371 5.80517 1.008 0.07222
4287 226 1 4.86166 38.1869 6.0848 1.008 0.07222
4288 226 1 4.38023 39.9739 7.73364 1.008 0.09202
4289 226 1 5.55569 40.2361 9.01127 1.008 0.09202
4290 226 1 5.96638 40.8288 6.03863 1.008 0.10167
4291 226 1 7.20194 41.0814 7.2824 1.008 0.10167
4292 226 1 5.6437 43.0136 6.45508 1.008 0.08773
4293 226 1 4.45573 42.2879 7.53687 1.008 0.08773
4294 226 1 6.00004 42.8789 8.19399 1.008 0.08773
4295 227 4 35.5838 21.0836 44.5663 15.999 -0.35515
4296 227 2 35.0361 20.8829 45.8448 12.011 0.03297
4297 227 2 36.9878 21.1921 44.5747 12.011 0.01762
4298 227 2 37.4791 22.3749 45.4116 12.011 -0.23743
4299 227 2 38.9846 22.4619 45.3561 12.011 -0.24423
4300 227 3 33.5504 20.7396 45.6783 12.011 -0.1837
4301 227 3 32.7196 21.5782 46.269 12.011 -0.23415
4302 227 1 33.1201 22.3799 46.8793 1.008 0.12909
4303 227 1 31.6451 21.4992 46.1721 1.008 0.12909
4304 227 1 33.2001 19.9233 45.0519 1.008 0.15086
4305 227 1 35.2056 21.7654 46.4615 1.008 0.07222
4306 227 1 35.4189 20.0095 46.3708 1.008 0.07222
4307 227 1 37.4331 20.2651 44.9381 1.008 0.09202
4308 227 1 37.2985 21.3116 43.5362 1.008 0.09202
4309 227 1 37.2264 22.2287 46.4588 1.008 0.10167
4310 227 1 37.0484 23.3188 45.0756 1.008 0.10167
4311 227 1 39.3486 22.94 46.2626 1.008 0.08773
4312 227 1 39.4003 21.4592 45.3063 1.008 0.08773
4313 227 1 39.3018 23.0325 44.4857 1.008 0.08773
4314 228 4 3.17595 44.9185 39.8243 15.999 -0.35515
4315 228 2 2.56884 46.1033 40.273 12.011 0.03297
4316 228 2 4.40908 44.6529 40.449 12.011 0.01762
4317 228 2 5.44972 45.7354 40.202 12.011 -0.23743
4318 228 2 6.7495 45.3828 40.8639 12.011 -0.24423
4319 228 3 1.25836 46.2451 39.5572 12.011 -0.1837
4320 228 3 1.00931 47.2891 38.7876 12.011 -0.23415
4321 228 1 1.76654 48.0574 38.6744 1.008 0.12909
4322 228 1 0.0724983 47.4152 38.2621 1.008 0.12909
4323 228 1 0.536227 45.4493 39.7027 1.008 0.15086
4324 228 1 3.17121 46.9526 39.9842 1.008 0.07222
4325 228 1 2.40262 46.158 41.3459 1.008 0.07222
4326 228 1 4.26547 44.5234 41.521 1.008 0.09202
4327 228 1 4.76473 43.7056 40.048 1.008 0.09202
4328 228 1 5.13375 46.6605 40.6675 1.008 0.10167
4329 228 1 5.62122 45.9114 39.1435 1.008 0.10167
4330 228 1 7.26762 46.3002 41.1082 1.008 0.08773
4331 228 1 6.55319 44.8679 41.7964 1.008 0.08773
4332 228 1 7.35763 44.7698 40.2046 1.008 0.08773
4333 229 4 37.9134 37.0831 19.5705 15.999 -0.35515
4334 229 2 37.963 38.4821 19.4452 12.011 0.03297
4335 229 2 37.8625 36.4128 18.334 12.011 0.01762
4336 229 2 36.6297 36.7822 17.5109 12.011 -0.23743
4337 229 2 36.6122 36.0143 16.2133 12.011 -0.24423
4338 229 3 38.068 39.069 20.8225 12.011 -0.1837
4339 229 3 37.1591 39.9174 21.2681 12.011 -0.23415
4340 229 1 36.3069 40.1558 20.6359 1.008 0.12909
4341 229 1 37.1771 40.3253 22.2692 1.008 0.12909
4342 229 1 38.9144 38.763 21.4285 1.008 0.15086
4343 229 1 37.0325 38.8481 19.0109 1.008 0.07222
4344 229 1 38.799 38.8513 18.8553 1.008 0.07222
4345 229 1 38.7669 36.6184 17.7617 1.008 0.09202
4346 229 1 37.8552 35.3461 18.5583 1.008 0.09202
4347 229 1 36.6666 37.83 17.2329 1.008 0.10167
4348 229 1 35.7035 36.596 18.0524 1.008 0.10167
4349 229 1 36.0635 36.5843 15.4669 1.008 0.08773
4350 229 1 37.6324 35.8813 15.8618 1.008 0.08773
4351 229 1 36.1408 35.0441 16.3564 1.008 0.08773
4352 230 4 16.2495 6.37257 49.9187 15.999 -0.35515
4353 230 2 16.6684 5.04264 50.0959 12.011 0.03297
4354 230 2 14.8493 6.51427 49.9002 12.011 0.01762
4355 230 2 14.1788 5.73147 48.7807 12.011 -0.23743
4356 230 2 12.6873 5.9577 48.814 12.011 -0.24423
4357 230 3 18.1695 5.04278 50.1235 12.011 -0.1837
4358 230 3 18.8622 4.35562 49.2338 12.011 -0.23415
4359 230 1 18.3353 3.78584 48.4765 1.008 0.12909
4360 230 1 19.9439 4.3304 49.2287 1.008 0.12909
4361 230 1 18.6512 5.63095 50.8993 1.008 0.15086
4362 230 1 16.3648 4.44094 49.2389 1.008 0.07222
4363 230 1 16.2992 4.56891 51.004 1.008 0.07222
4364 230 1 14.431 6.19298 50.8545 1.008 0.09202
4365 230 1 14.6489 7.5822 49.7933 1.008 0.09202
4366 230 1 14.3256 4.66501 48.9289 1.008 0.10167
4367 230 1 14.5717 6.012 47.8047 1.008 0.10167
4368 230 1 12.1903 5.09392 48.3796 1.008 0.08773
4369 230 1 12.3564 6.05827 49.8454 1.008 0.08773
4370 230 1 12.4262 6.85303 48.2534 1.008 0.08773
4371 231 4 12.1825 45.7735 15.0071 15.999 -0.35515
4372 231 2 11.8133 47.1244 14.903 12.011 0.03297
4373 231 2 12.1141 45.2519 16.3102 12.011 0.01762
4374 231 2 12.9778 46.0037 17.3135 12.011 -0.23743
4375 231 2 12.8451 45.3948 18.6845 12.011 -0.24423
4376 231 3 11.8962 47.5575 13.4691 12.011 -0.1837
4377 231 3 12.7039 48.5361 13.1026 12.011 -0.23415
4378 231 1 13.3204 49.0246 13.8504 1.008 0.12909
4379 231 1 12.8601 48.8067 12.0644 1.008 0.12909
4380 231 1 11.3508 46.9615 12.7392 1.008 0.15086
4381 231 1 12.5078 47.7471 15.4643 1.008 0.07222
4382 231 1 10.8052 47.3203 15.2311 1.008 0.07222
4383 231 1 11.0848 45.2632 16.6351 1.008 0.09202
4384 231 1 12.4071 44.2058 16.256 1.008 0.09202
4385 231 1 12.6318 47.027 17.4006 1.008 0.10167
4386 231 1 14.0261 46.0114 17.0281 1.008 0.10167
4387 231 1 13.042 46.1546 19.436 1.008 0.08773
4388 231 1 11.8262 45.0402 18.8186 1.008 0.08773
4389 231 1 13.5453 44.571 18.8007 1.008 0.08773
4390 232 4 3.78004 45.2241 45.8274 15.999 -0.35515
4391 232 2 4.99969 45.4828 46.4773 12.011 0.03297
4392 232 2 2.93399 44.3672 46.5563 12.011 0.01762
4393 232 2 3.55893 42.9935 46.8069 12.011 -0.23743
4394 232 2 2.59401 42.1125 47.5631 12.011 -0.24423
4395 232 3 5.77553 46.4339 45.6127 12.011 -0.1837
4396 232 3 6.95957 46.0991 45.1356 12.011 -0.23415
4397 232 1 7.37314 45.1258 45.3729 1.008 0.12909
4398 232 1 7.54572 46.7616 44.5178 1.008 0.12909
4399 232 1 5.31802 47.3965 45.4011 1.008 0.15086
4400 232 1 5.58521 44.5659 46.5499 1.008 0.07222
4401 232 1 4.89996 45.9126 47.4728 1.008 0.07222
4402 232 1 2.66166 44.8315 47.5044 1.008 0.09202
4403 232 1 2.01848 44.2626 45.9732 1.008 0.09202
4404 232 1 4.43822 43.0858 47.44 1.008 0.10167
4405 232 1 3.8485 42.5018 45.8776 1.008 0.10167
4406 232 1 3.15524 41.3778 48.1359 1.008 0.08773
4407 232 1 2.01967 42.7201 48.2586 1.008 0.08773
4408 232 1 1.92102 41.6068 46.8732 1.008 0.08773
4409 233 4 15.0027 20.4577 42.5765 15.999 -0.35515
4410 233 2 15.9296 21.0271 41.6857 12.011 0.03297
4411 233 2 14.1757 19.4927 41.9725 12.011 0.01762
4412 233 2 13.3471 20.0643 40.8225 12.011 -0.23743
4413 233 2 12.47 18.9929 40.2332 12.011 -0.24423
4414 233 3 16.7647 21.9983 42.4666 12.011 -0.1837
4415 233 3 16.7949 23.2745 42.1385 12.011 -0.23415
4416 233 1 16.2105 23.6262 41.2966 1.008 0.12909
4417 233 1 17.3891 23.9906 42.6847 1.008 0.12909
4418 233 1 17.3307 21.6068 43.3071 1.008 0.15086
4419 233 1 15.4075 21.6 40.9187 1.008 0.07222
4420 233 1 16.5884 20.3104 41.1987 1.008 0.07222
4421 233 1 14.7782 18.6585 41.6143 1.008 0.09202
4422 233 1 13.5221 19.1067 42.7552 1.008 0.09202
4423 233 1 13.9856 20.3957 40.0121 1.008 0.10167
4424 233 1 12.7372 20.907 41.1398 1.008 0.10167
4425 233 1 12.2427 19.2302 39.1993 1.008 0.08773
4426 233 1 12.9733 18.0327 40.2769 1.008 0.08773
4427 233 1 11.5471 18.9335 40.7867 1.008 0.08773
4428 234 4 30.3873 13.5468 29.5826 15.999 -0.35515
4429 234 2 29.8699 12.2645 29.838 12.011 0.03297
4430 234 2 29.4071 14.5559 29.6134 12.011 0.01762
4431 234 2 28.3109 14.3451 28.5698 12.011 -0.23743
4432 234 2 27.3157 15.4756 28.6312 12.011 -0.24423
4433 234 3 31.022 11.3012 29.812 12.011 -0.1837
4434 234 3 31.0524 10.3002 28.9522 12.011 -0.23415
4435 234 1 30.2331 10.1706 28.2576 1.008 0.12909
4436 234 1 31.8638 9.58701 28.9115 1.008 0.12909
4437 234 1 31.8227 11.468 30.5268 1.008 0.15086
4438 234 1 29.1911 11.9726 29.0379 1.008 0.07222
4439 234 1 29.3497 12.1672 30.7899 1.008 0.07222
4440 234 1 28.9668 14.6181 30.6086 1.008 0.09202
4441 234 1 29.9236 15.4982 29.4296 1.008 0.09202
4442 234 1 27.748 13.439 28.782 1.008 0.10167
4443 234 1 28.7175 14.2797 27.5621 1.008 0.10167
4444 234 1 26.3582 15.1155 28.2731 1.008 0.08773
4445 234 1 27.1931 15.7988 29.662 1.008 0.08773
4446 234 1 27.6397 16.3117 28.0153 1.008 0.08773
4447 235 4 28.6803 32.8139 25.5942 15.999 -0.35515
4448 235 2 28.6208 33.2029 26.9427 12.011 0.03297
4449 235 2 29.5325 31.7141 25.3804 12.011 0.01762
4450 235 2 30.9727 31.9814 25.7977 12.011 -0.23743
4451 235 2 31.8491 30.7931 25.5054 12.011 -0.24423
4452 235 3 27.6552 34.3514 27.0135 12.011 -0.1837
4453 235 3 28.0257 35.5225 27.4961 12.011 -0.23415
4454 235 1 29.052 35.6497 27.8183 1.008 0.12909
4455 235 1 27.3559 36.3657 27.5799 1.008 0.12909
4456 235 1 26.6344 34.165 26.696 1.008 0.15086
4457 235 1 29.5893 33.5755 27.2771 1.008 0.07222
4458 235 1 28.3049 32.4145 27.6272 1.008 0.07222
4459 235 1 29.1614 30.8422 25.9104 1.008 0.09202
4460 235 1 29.4864 31.4844 24.3186 1.008 0.09202
4461 235 1 31.0446 32.1618 26.8671 1.008 0.10167
4462 235 1 31.3737 32.8374 25.2734 1.008 0.10167
4463 235 1 32.6914 30.7941 26.1928 1.008 0.08773
4464 235 1 31.2787 29.8855 25.6647 1.008 0.08773
4465 235 1 32.2119 30.8245 24.4816 1.008 0.08773
4466 236 4 3.29512 34.0303 10.165 15.999 -0.35515
4467 236 2 2.72205 33.2232 9.2062 12.011 0.03297
4468 236 2 4.23193 33.4599 11.0392 12.011 0.01762
4469 236 2 3.48797 32.5636 11.9588 12.011 -0.23743
4470 236 2 4.45022 31.9696 12.9366 12.011 -0.24423
4471 236 3 1.92489 34.1074 8.286 12.011 -0.1837
4472 236 3 0.617593 33.9522 8.20429 12.011 -0.23415
4473 236 1 0.138458 33.2281 8.8515 1.008 0.12909
4474 236 1 0.014772 34.4957 7.49481 1.008 0.12909
4475 236 1 2.46582 34.7733 7.61471 1.008 0.15086
4476 236 1 2.03631 32.6271 9.78787 1.008 0.07222
4477 236 1 3.42265 32.5977 8.65441 1.008 0.07222
4478 236 1 5.03326 32.9562 10.5008 1.008 0.09202
4479 236 1 4.70436 34.2631 11.6118 1.008 0.09202
4480 236 1 3.06639 31.7604 11.3693 1.008 0.10167
4481 236 1 2.69495 33.1143 12.4626 1.008 0.10167
4482 236 1 4.05096 31.0134 13.248 1.008 0.08773
4483 236 1 5.41077 31.8063 12.4529 1.008 0.08773
4484 236 1 4.5714 32.6293 13.791 1.008 0.08773
4485 237 4 42.126 5.89284 23.992 15.999 -0.35515
4486 237 2 41.0217 6.50127 24.6118 12.011 0.03297
4487 237 2 41.8968 4.55352 23.6318 12.011 0.01762
4488 237 2 41.5828 3.66889 24.839 12.011 -0.23743
4489 237 2 41.3778 2.24055 24.3993 12.011 -0.24423
4490 237 3 41.392 7.92956 24.8864 12.011 -0.1837
4491 237 3 41.4009 8.40207 26.1128 12.011 -0.23415
4492 237 1 41.1595 7.72132 26.9039 1.008 0.12909
4493 237 1 41.6474 9.42167 26.3642 1.008 0.12909
4494 237 1 41.655 8.54792 24.0382 1.008 0.15086
4495 237 1 40.8303 6.02443 25.5728 1.008 0.07222
4496 237 1 40.1056 6.48552 24.0231 1.008 0.07222
4497 237 1 41.0877 4.49808 22.903 1.008 0.09202
4498 237 1 42.8031 4.20584 23.1359 1.008 0.09202
4499 237 1 40.6476 3.97793 25.2952 1.008 0.10167
4500 237 1 42.3693 3.71103 25.5921 1.008 0.10167
4501 237 1 40.7176 1.74051 25.1035 1.008 0.08773
4502 237 1 40.9015 2.22945 23.4211 1.008 0.08773
4503 237 1 42.3307 1.71806 24.3492 1.008 0.08773
4504 238 4 27.0183 41.787 11.1026 15.999 -0.35515
4505 238 2 27.603 41.4169 9.88738 12.011 0.03297
4506 238 2 26.311 42.9981 11.0478 12.011 0.01762
4507 238 2 27.1913 44.1777 10.6455 12.011 -0.23743
4508 238 2 26.3897 45.4528 10.6247 12.011 -0.24423
4509 238 3 28.2972 40.1127 10.139 12.011 -0.1837
4510 238 3 29.5953 39.977 9.93617 12.011 -0.23415
4511 238 1 30.1623 40.8296 9.58193 1.008 0.12909
4512 238 1 30.1068 39.0282 10.0292 1.008 0.12909
4513 238 1 27.6813 39.2701 10.4349 1.008 0.15086
4514 238 1 28.373 42.1303 9.61079 1.008 0.07222
4515 238 1 26.8975 41.3161 9.06227 1.008 0.07222
4516 238 1 25.4767 42.9013 10.3563 1.008 0.09202
4517 238 1 25.8945 43.1618 12.0415 1.008 0.09202
4518 238 1 27.5544 44.0418 9.63496 1.008 0.10167
4519 238 1 28.042 44.291 11.3134 1.008 0.10167
4520 238 1 26.8366 46.1467 9.91719 1.008 0.08773
4521 238 1 25.3824 45.2279 10.29 1.008 0.08773
4522 238 1 26.3605 45.8988 11.6162 1.008 0.08773
4523 239 4 41.8355 44.3627 41.1261 15.999 -0.35515
4524 239 2 42.2128 43.6596 42.2838 12.011 0.03297
4525 239 2 40.4633 44.6717 41.0875 12.011 0.01762
4526 239 2 39.5771 43.4264 41.1097 12.011 -0.23743
4527 239 2 38.122 43.8194 41.0335 12.011 -0.24423
4528 239 3 43.6959 43.4391 42.2093 12.011 -0.1837
4529 239 3 44.1992 42.2174 42.2067 12.011 -0.23415
4530 239 1 43.5276 41.3679 42.2566 1.008 0.12909
4531 239 1 45.2627 42.0255 42.1574 1.008 0.12909
4532 239 1 44.3258 44.3228 42.1575 1.008 0.15086
4533 239 1 41.7433 42.6757 42.2896 1.008 0.07222
4534 239 1 41.9775 44.1648 43.22 1.008 0.07222
4535 239 1 40.2057 45.3224 41.9203 1.008 0.09202
4536 239 1 40.2948 45.2394 40.1724 1.008 0.09202
4537 239 1 39.6947 42.8917 42.0493 1.008 0.10167
4538 239 1 39.8136 42.7473 40.2934 1.008 0.10167
4539 239 1 37.5196 43.0488 41.5098 1.008 0.08773
4540 239 1 37.971 44.7511 41.574 1.008 0.08773
4541 239 1 37.8128 43.9379 39.997 1.008 0.08773
4542 240 4 28.8929 39.9181 28.0286 15.999 -0.35515
4543 240 2 27.8153 40.7392 27.6862 12.011 0.03297
4544 240 2 28.8795 39.4022 29.3251 12.011 0.01762
4545 240 2 28.9677 40.5257 30.3426 12.011 -0.23743
4546 240 2 28.9772 39.9607 31.7346 12.011 -0.24423
4547 240 3 27.9478 41.1159 26.2365 12.011 -0.1837
4548 240 3 28.0773 42.3757 25.8709 12.011 -0.23415
4549 240 1 28.0797 43.1432 26.6262 1.008 0.12909
4550 240 1 28.1738 42.6951 24.8456 1.008 0.12909
4551 240 1 27.9282 40.3175 25.5034 1.008 0.15086
4552 240 1 27.9073 41.6491 28.2665 1.008 0.07222
4553 240 1 26.8368 40.2975 27.8489 1.008 0.07222
4554 240 1 27.984 38.8068 29.4799 1.008 0.09202
4555 240 1 29.7375 38.733 29.4099 1.008 0.09202
4556 240 1 28.0865 41.1586 30.2758 1.008 0.10167
4557 240 1 29.8574 41.1352 30.1937 1.008 0.10167
4558 240 1 28.5677 40.6985 32.4199 1.008 0.08773
4559 240 1 28.3444 39.0776 31.7673 1.008 0.08773
4560 240 1 29.991 39.7027 32.0324 1.008 0.08773
4561 241 4 3.95054 18.8053 50.2176 15.999 -0.35515
4562 241 2 2.60344 18.747 50.6124 12.011 0.03297
4563 241 2 4.64502 19.8929 50.7793 12.011 0.01762
4564 241 2 4.05174 21.2408 50.3919 12.011 -0.23743
4565 241 2 4.84977 22.374 50.9783 12.011 -0.24423
4566 241 3 2.00459 17.5217 49.9839 12.011 -0.1837
4567 241 3 0.979509 17.6174 49.1571 12.011 -0.23415
4568 241 1 0.572991 18.5974 48.9315 1.008 0.12909
4569 241 1 0.523567 16.7548 48.69 1.008 0.12909
4570 241 1 2.45511 16.5661 50.2368 1.008 0.15086
4571 241 1 2.06199 19.6067 50.2172 1.008 0.07222
4572 241 1 2.45159 18.7007 51.6897 1.008 0.07222
4573 241 1 4.67153 19.8065 51.863 1.008 0.09202
4574 241 1 5.66967 19.8199 50.4238 1.008 0.09202
4575 241 1 3.0399 21.3443 50.7736 1.008 0.10167
4576 241 1 4.03419 21.3578 49.3163 1.008 0.10167
4577 241 1 4.20791 23.2408 51.1086 1.008 0.08773
4578 241 1 5.22024 22.0723 51.9525 1.008 0.08773
4579 241 1 5.67664 22.6304 50.3221 1.008 0.08773
4580 242 4 30.9873 40.7383 17.6355 15.999 -0.35515
4581 242 2 31.1708 41.6855 18.652 12.011 0.03297
4582 242 2 31.9856 39.7458 17.6089 12.011 0.01762
4583 242 2 33.3706 40.327 17.3587 12.011 -0.23743
4584 242 2 34.3868 39.226 17.2725 12.011 -0.24423
4585 242 3 30.0104 42.6357 18.5995 12.011 -0.1837
4586 242 3 30.1968 43.9226 18.374 12.011 -0.23415
4587 242 1 31.2041 44.2949 18.2259 1.008 0.12909
4588 242 1 29.3813 44.6323 18.3388 1.008 0.12909
4589 242 1 29.0222 42.212 18.7545 1.008 0.15086
4590 242 1 32.0646 42.2611 18.4368 1.008 0.07222
4591 242 1 31.2524 41.2741 19.6563 1.008 0.07222
4592 242 1 31.9919 39.1818 18.5409 1.008 0.09202
4593 242 1 31.7216 39.0497 16.8122 1.008 0.09202
4594 242 1 33.675 40.9734 18.1691 1.008 0.10167
4595 242 1 33.4217 40.9372 16.4717 1.008 0.10167
4596 242 1 35.3467 39.6194 17.5618 1.008 0.08773
4597 242 1 34.1308 38.4494 17.9826 1.008 0.08773
4598 242 1 34.456 38.8195 16.2679 1.008 0.08773
4599 243 4 14.5808 24.6396 47.4211 15.999 -0.35515
4600 243 2 14.5813 23.8042 48.5387 12.011 0.03297
4601 243 2 14.0336 25.9127 47.6423 12.011 0.01762
4602 243 2 12.5681 25.8374 48.0481 12.011 -0.23743
4603 243 2 12.0162 27.2244 48.2528 12.011 -0.24423
4604 243 3 15.2496 22.5185 48.1459 12.011 -0.1837
4605 243 3 14.5953 21.3743 48.211 12.011 -0.23415
4606 243 1 13.5638 21.3735 48.5449 1.008 0.12909
4607 243 1 15.0467 20.4272 47.9482 1.008 0.12909
4608 243 1 16.2828 22.5764 47.8105 1.008 0.15086
4609 243 1 13.5513 23.5687 48.795 1.008 0.07222
4610 243 1 15.0866 24.2195 49.4061 1.008 0.07222
4611 243 1 14.6169 26.4448 48.3923 1.008 0.09202
4612 243 1 14.1352 26.462 46.7086 1.008 0.09202
4613 243 1 12.475 25.3297 49.0031 1.008 0.10167
4614 243 1 11.9676 25.3066 47.31 1.008 0.10167
4615 243 1 11.1988 27.1786 48.9671 1.008 0.08773
4616 243 1 12.7941 27.8669 48.6603 1.008 0.08773
4617 243 1 11.6539 27.6316 47.3117 1.008 0.08773
4618 244 4 15.4493 25.1561 12.7512 15.999 -0.35515
4619 244 2 15.1963 24.1769 11.7747 12.011 0.03297
4620 244 2 15.1626 24.7242 14.0596 12.011 0.01762
4621 244 2 13.6934 24.3387 14.2437 12.011 -0.23743
4622 244 2 13.4433 23.9153 15.6708 12.011 -0.24423
4623 244 3 15.5828 24.7569 10.4447 12.011 -0.1837
4624 244 3 14.6935 24.8818 9.4768 12.011 -0.23415
4625 244 1 13.6724 24.5622 9.65 1.008 0.12909
4626 244 1 14.9448 25.2924 8.50976 1.008 0.12909
4627 244 1 16.6168 25.0679 10.3218 1.008 0.15086
4628 244 1 14.1285 23.9627 11.7315 1.008 0.07222
4629 244 1 15.7346 23.2418 11.9214 1.008 0.07222
4630 244 1 15.8054 23.8838 14.3221 1.008 0.09202
4631 244 1 15.4215 25.549 14.7245 1.008 0.09202
4632 244 1 13.4471 23.4765 13.6287 1.008 0.10167
4633 244 1 13.0218 25.1576 13.9845 1.008 0.10167
4634 244 1 12.6043 23.224 15.6964 1.008 0.08773
4635 244 1 14.3204 23.3998 16.0553 1.008 0.08773
4636 244 1 13.2244 24.7813 16.293 1.008 0.08773
4637 245 4 12.8372 26.0983 36.128 15.999 -0.35515
4638 245 2 11.7294 26.6843 35.4992 12.011 0.03297
4639 245 2 12.7098 24.7167 36.3205 12.011 0.01762
4640 245 2 11.4882 24.2975 37.1117 12.011 -0.23743
4641 245 2 11.4247 22.7952 37.2489 12.011 -0.24423
4642 245 3 12.0527 28.139 35.3629 12.011 -0.1837
4643 245 3 11.2857 29.0397 35.9248 12.011 -0.23415
4644 245 1 10.4357 28.6423 36.4445 1.008 0.12909
4645 245 1 11.4157 30.1113 35.866 1.008 0.12909
4646 245 1 12.9209 28.4371 34.8063 1.008 0.15086
4647 245 1 10.8394 26.5862 36.1221 1.008 0.07222
4648 245 1 11.5037 26.2932 34.5137 1.008 0.07222
4649 245 1 12.671 24.2517 35.3739 1.008 0.09202
4650 245 1 13.6233 24.3448 36.7681 1.008 0.09202
4651 245 1 10.5698 24.5904 36.61 1.008 0.10167
4652 245 1 11.5115 24.7624 38.0908 1.008 0.10167
4653 245 1 10.387 22.5016 37.3978 1.008 0.08773
4654 245 1 11.7825 22.3277 36.3388 1.008 0.08773
4655 245 1 12.0232 22.4698 38.0973 1.008 0.08773
4656 246 4 22.5796 13.2596 27.9555 15.999 -0.35515
4657 246 2 23.787 13.6725 28.5411 12.011 0.03297
4658 246 2 22.7525 12.3384 26.9072 12.011 0.01762
4659 246 2 23.5812 12.9017 25.7527 12.011 -0.23743
4660 246 2 23.7105 11.8864 24.6481 12.011 -0.24423
4661 246 3 23.4526 14.6101 29.6653 12.011 -0.1837
4662 246 3 23.9048 15.8496 29.6749 12.011 -0.23415
4663 246 1 24.5052 16.1945 28.8392 1.008 0.12909
4664 246 1 23.6658 16.5587 30.4537 1.008 0.12909
4665 246 1 22.8211 14.2278 30.4597 1.008 0.15086
4666 246 1 24.3728 14.2315 27.8147 1.008 0.07222
4667 246 1 24.3999 12.8643 28.9312 1.008 0.07222
4668 246 1 23.2111 11.4255 27.2863 1.008 0.09202
4669 246 1 21.7532 12.0788 26.561 1.008 0.09202
4670 246 1 24.59 13.1158 26.0867 1.008 0.10167
4671 246 1 23.1505 13.8106 25.34 1.008 0.10167
4672 246 1 24.6247 12.0703 24.0923 1.008 0.08773
4673 246 1 23.7714 10.8916 25.084 1.008 0.08773
4674 246 1 22.8597 11.949 23.9733 1.008 0.08773
4675 247 4 2.6202 5.07984 38.0345 15.999 -0.35515
4676 247 2 1.97388 5.59947 36.8989 12.011 0.03297
4677 247 2 1.92156 5.32536 39.2314 12.011 0.01762
4678 247 2 1.74049 6.81763 39.5136 12.011 -0.23743
4679 247 2 1.0139 7.01483 40.822 12.011 -0.24423
4680 247 3 2.80341 5.23113 35.7028 12.011 -0.1837
4681 247 3 3.31064 6.16399 34.9176 12.011 -0.23415
4682 247 1 3.12337 7.20744 35.1446 1.008 0.12909
4683 247 1 3.90903 5.93164 34.0467 1.008 0.12909
4684 247 1 2.96662 4.17258 35.5199 1.008 0.15086
4685 247 1 1.95062 6.68834 36.9482 1.008 0.07222
4686 247 1 0.958755 5.23435 36.7497 1.008 0.07222
4687 247 1 0.950249 4.83127 39.2034 1.008 0.09202
4688 247 1 2.49807 4.85925 40.031 1.008 0.09202
4689 247 1 1.11409 7.27624 38.7525 1.008 0.10167
4690 247 1 2.694 7.34589 39.5447 1.008 0.10167
4691 247 1 0.481637 7.96284 40.7951 1.008 0.08773
4692 247 1 0.284329 6.21945 40.9553 1.008 0.08773
4693 247 1 1.71703 7.0124 41.6529 1.008 0.08773
4694 248 4 2.65487 43.0496 32.9228 15.999 -0.35515
4695 248 2 2.76498 43.0077 31.525 12.011 0.03297
4696 248 2 3.64471 42.2985 33.5855 12.011 0.01762
4697 248 2 3.60587 40.8262 33.2357 12.011 -0.23743
4698 248 2 4.64427 40.0395 33.9862 12.011 -0.24423
4699 248 3 1.68832 43.8793 30.9529 12.011 -0.1837
4700 248 3 0.769546 43.3825 30.1442 12.011 -0.23415
4701 248 1 0.799942 42.3277 29.8933 1.008 0.12909
4702 248 1 51.9681 43.9891 29.7188 1.008 0.12909
4703 248 1 1.70093 44.9244 31.2409 1.008 0.15086
4704 248 1 2.56324 42.0033 31.1815 1.008 0.07222
4705 248 1 3.72791 43.3189 31.134 1.008 0.07222
4706 248 1 4.63076 42.6893 33.3616 1.008 0.09202
4707 248 1 3.46832 42.4186 34.6525 1.008 0.09202
4708 248 1 3.82702 40.6744 32.1878 1.008 0.10167
4709 248 1 2.62244 40.4428 33.4642 1.008 0.10167
4710 248 1 4.92136 39.1575 33.4129 1.008 0.08773
4711 248 1 5.52561 40.6599 34.1028 1.008 0.08773
4712 248 1 4.26398 39.7434 34.9601 1.008 0.08773
4713 249 4 27.264 15.4993 11.4151 15.999 -0.35515
4714 249 2 27.325 15.9933 10.1034 12.011 0.03297
4715 249 2 27.3334 14.0962 11.4801 12.011 0.01762
4716 249 2 26.1868 13.413 10.7326 12.011 -0.23743
4717 249 2 26.3021 11.9134 10.8637 12.011 -0.24423
4718 249 3 27.2767 17.4819 10.2021 12.011 -0.1837
4719 249 3 26.2919 18.146 9.63715 12.011 -0.23415
4720 249 1 25.5345 17.6437 9.06929 1.008 0.12909
4721 249 1 26.2409 19.2125 9.6291 1.008 0.12909
4722 249 1 28.0731 17.9783 10.747 1.008 0.15086
4723 249 1 26.4417 15.6862 9.54375 1.008 0.07222
4724 249 1 28.2138 15.7058 9.54669 1.008 0.07222
4725 249 1 28.291 13.7548 11.0867 1.008 0.09202
4726 249 1 27.3043 13.8301 12.5371 1.008 0.09202
4727 249 1 26.2484 13.6249 9.66768 1.008 0.10167
4728 249 1 25.2117 13.7366 11.0995 1.008 0.10167
4729 249 1 25.8325 11.4423 10.0036 1.008 0.08773
4730 249 1 27.3523 11.6308 10.8755 1.008 0.08773
4731 249 1 25.8203 11.5748 11.7785 1.008 0.08773
4732 250 4 44.3639 44.9149 11.3711 15.999 -0.35515
4733 250 2 43.7072 44.5924 10.1701 12.011 0.03297
4734 250 2 44.6559 43.7888 12.1634 12.011 0.01762
4735 250 2 43.3992 43.0237 12.5833 12.011 -0.23743
4736 250 2 43.7735 41.8495 13.4554 12.011 -0.24423
4737 250 3 43.5017 45.8744 9.41616 12.011 -0.1837
4738 250 3 42.2874 46.2886 9.11025 12.011 -0.23415
4739 250 1 41.4318 45.6857 9.39356 1.008 0.12909
4740 250 1 42.1035 47.2004 8.5597 1.008 0.12909
4741 250 1 44.3897 46.4395 9.14552 1.008 0.15086
4742 250 1 42.7189 44.1852 10.385 1.008 0.07222
4743 250 1 44.2435 43.8904 9.53354 1.008 0.07222
4744 250 1 45.3374 43.1248 11.6307 1.008 0.09202
4745 250 1 45.1849 44.1554 13.0437 1.008 0.09202
4746 250 1 42.9021 42.6027 11.7127 1.008 0.10167
4747 250 1 42.6923 43.6609 13.1157 1.008 0.10167
4748 250 1 43.0144 41.0769 13.3569 1.008 0.08773
4749 250 1 44.7233 41.4382 13.1213 1.008 0.08773
4750 250 1 43.8512 42.1589 14.496 1.008 0.08773
4751 251 4 25.4164 37.3886 11.5839 15.999 -0.35515
4752 251 2 25.3158 37.6835 10.2285 12.011 0.03297
4753 251 2 25.9134 36.1013 11.8495 12.011 0.01762
4754 251 2 25.0271 35.0034 11.3216 12.011 -0.23743
4755 251 2 25.601 33.6611 11.6954 12.011 -0.24423
4756 251 3 24.8121 39.091 10.1046 12.011 -0.1837
4757 251 3 23.6788 39.3464 9.48148 12.011 -0.23415
4758 251 1 23.1076 38.5229 9.0691 1.008 0.12909
4759 251 1 23.2943 40.3491 9.3601 1.008 0.12909
4760 251 1 25.416 39.879 10.544 1.008 0.15086
4761 251 1 24.5692 37.0284 9.78944 1.008 0.07222
4762 251 1 26.2494 37.5784 9.68528 1.008 0.07222
4763 251 1 26.9384 36.0244 11.4976 1.008 0.09202
4764 251 1 25.954 35.9505 12.9185 1.008 0.09202
4765 251 1 25.0166 35.0552 10.2415 1.008 0.10167
4766 251 1 24.011 35.087 11.7031 1.008 0.10167
4767 251 1 25.2907 32.9375 10.9463 1.008 0.08773
4768 251 1 26.6878 33.7164 11.6956 1.008 0.08773
4769 251 1 25.2574 33.3492 12.6767 1.008 0.08773
4770 252 4 6.04084 26.8563 14.5126 15.999 -0.35515
4771 252 2 5.98038 26.636 13.1256 12.011 0.03297
4772 252 2 6.21637 28.2106 14.8537 12.011 0.01762
4773 252 2 7.51441 28.795 14.2939 12.011 -0.23743
4774 252 2 7.66 30.2363 14.7173 12.011 -0.24423
4775 252 3 5.75169 25.1668 12.9131 12.011 -0.1837
4776 252 3 6.61962 24.4369 12.2362 12.011 -0.23415
4777 252 1 7.507 24.9105 11.8312 1.008 0.12909
4778 252 1 6.48016 23.3779 12.064 1.008 0.12909
4779 252 1 4.84954 24.74 13.3435 1.008 0.15086
4780 252 1 6.93955 26.8797 12.669 1.008 0.07222
4781 252 1 5.1976 27.1931 12.6133 1.008 0.07222
4782 252 1 5.36416 28.7953 14.5064 1.008 0.09202
4783 252 1 6.22092 28.2605 15.9432 1.008 0.09202
4784 252 1 7.48884 28.8048 13.2068 1.008 0.10167
4785 252 1 8.38934 28.2307 14.6189 1.008 0.10167
4786 252 1 8.26333 30.7652 13.9832 1.008 0.08773
4787 252 1 6.67935 30.7049 14.752 1.008 0.08773
4788 252 1 8.13321 30.2995 15.6956 1.008 0.08773
4789 253 4 36.791 41.3414 17.7355 15.999 -0.35515
4790 253 2 36.5356 42.7121 17.6107 12.011 0.03297
4791 253 2 37.7814 40.8638 16.8603 12.011 0.01762
4792 253 2 37.4494 41.0936 15.3878 12.011 -0.23743
4793 253 2 38.5547 40.5452 14.5184 12.011 -0.24423
4794 253 3 35.4738 43.0682 18.6091 12.011 -0.1837
4795 253 3 34.3357 43.6099 18.2161 12.011 -0.23415
4796 253 1 34.1641 43.7766 17.1588 1.008 0.12909
4797 253 1 33.5504 43.8789 18.9095 1.008 0.12909
4798 253 1 35.6813 42.8614 19.6552 1.008 0.15086
4799 253 1 36.136 42.9357 16.6215 1.008 0.07222
4800 253 1 37.4106 43.3302 17.7918 1.008 0.07222
4801 253 1 38.7309 41.3288 17.1157 1.008 0.09202
4802 253 1 37.8856 39.7969 17.0441 1.008 0.09202
4803 253 1 37.4024 42.1579 15.1765 1.008 0.10167
4804 253 1 36.5002 40.6387 15.1029 1.008 0.10167
4805 253 1 38.5807 41.1 13.5829 1.008 0.08773
4806 253 1 39.5113 40.68 15.0192 1.008 0.08773
4807 253 1 38.3914 39.489 14.3137 1.008 0.08773
4808 254 4 8.45921 28.2636 42.9926 15.999 -0.35515
4809 254 2 7.47937 27.312 43.325 12.011 0.03297
4810 254 2 7.92071 29.5021 42.5962 12.011 0.01762
4811 254 2 7.02971 29.3895 41.3594 12.011 -0.23743
4812 254 2 6.50969 30.7485 40.9637 12.011 -0.24423
4813 254 3 8.19326 26.0671 43.7662 12.011 -0.1837
4814 254 3 8.01532 24.924 43.1303 12.011 -0.23415
4815 254 1 7.34222 24.8891 42.2825 1.008 0.12909
4816 254 1 8.51347 24.0085 43.4212 1.008 0.12909
4817 254 1 8.85728 26.1515 44.6215 1.008 0.15086
4818 254 1 6.89892 27.0512 42.4403 1.008 0.07222
4819 254 1 6.79532 27.6229 44.1129 1.008 0.07222
4820 254 1 7.3585 29.9437 43.4193 1.008 0.09202
4821 254 1 8.7662 30.1592 42.3918 1.008 0.09202
4822 254 1 6.15483 28.7882 41.5814 1.008 0.10167
4823 254 1 7.55563 28.9424 40.5181 1.008 0.10167
4824 254 1 5.56389 30.6314 40.4406 1.008 0.08773
4825 254 1 6.3329 31.3398 41.8591 1.008 0.08773
4826 254 1 7.22498 31.2579 40.3207 1.008 0.08773
4827 255 4 41.7109 27.5046 47.4512 15.999 -0.35515
4828 255 2 41.8969 28.8831 47.6543 12.011 0.03297
4829 255 2 42.6758 26.9358 46.6003 12.011 0.01762
4830 255 2 42.6821 27.5563 45.2046 12.011 -0.23743
4831 255 2 43.7177 26.8793 44.3405 12.011 -0.24423
4832 255 3 40.8254 29.3459 48.599 12.011 -0.1837
4833 255 3 39.9626 30.2774 48.2414 12.011 -0.23415
4834 255 1 40.0329 30.7082 47.2498 1.008 0.12909
4835 255 1 39.1835 30.6334 48.9015 1.008 0.12909
4836 255 1 40.7899 28.8809 49.5786 1.008 0.15086
4837 255 1 41.7534 29.4234 46.7183 1.008 0.07222
4838 255 1 42.8671 29.1516 48.0672 1.008 0.07222
4839 255 1 43.6634 27.0252 47.0506 1.008 0.09202
4840 255 1 42.4456 25.8723 46.535 1.008 0.09202
4841 255 1 42.9705 28.6037 45.2545 1.008 0.10167
4842 255 1 41.7059 27.4854 44.7248 1.008 0.10167
4843 255 1 44.0515 27.5726 43.573 1.008 0.08773
4844 255 1 44.5775 26.6066 44.9482 1.008 0.08773
4845 255 1 43.3004 25.9917 43.8691 1.008 0.08773
4846 256 4 12.5842 34.7701 31.8003 15.999 -0.35515
4847 256 2 13.3476 33.6227 31.5231 12.011 0.03297
4848 256 2 13.364 35.9293 31.9702 12.011 0.01762
4849 256 2 14.3545 35.8093 33.1293 12.011 -0.23743
4850 256 2 15.1345 37.0922 33.279 12.011 -0.24423
4851 256 3 12.3896 32.4824 31.3293 12.011 -0.1837
4852 256 3 12.4419 31.415 32.1055 12.011 -0.23415
4853 256 1 13.187 31.3667 32.8918 1.008 0.12909
4854 256 1 11.7689 30.5753 31.9903 1.008 0.12909
4855 256 1 11.6587 32.5792 30.5313 1.008 0.15086
4856 256 1 13.9712 33.3732 32.382 1.008 0.07222
4857 256 1 13.982 33.7047 30.6419 1.008 0.07222
4858 256 1 13.8971 36.1559 31.0469 1.008 0.09202
4859 256 1 12.6693 36.7501 32.1529 1.008 0.09202
4860 256 1 15.0887 35.0336 32.9246 1.008 0.10167
4861 256 1 13.8558 35.578 34.0708 1.008 0.10167
4862 256 1 16.099 36.8718 33.7324 1.008 0.08773
4863 256 1 15.3035 37.5311 32.2987 1.008 0.08773
4864 256 1 14.5938 37.7973 33.9021 1.008 0.08773
4865 257 4 30.2334 40.1142 45.3237 15.999 -0.35515
4866 257 2 30.9971 39.8825 46.4824 12.011 0.03297
4867 257 2 29.2876 41.1445 45.4767 12.011 0.01762
4868 257 2 28.2718 40.8543 46.5819 12.011 -0.23743
4869 257 2 27.2736 41.9819 46.6781 12.011 -0.24423
4870 257 3 31.9927 38.8036 46.1736 12.011 -0.1837
4871 257 3 32.0062 37.6744 46.8583 12.011 -0.23415
4872 257 1 31.2702 37.5265 47.6417 1.008 0.12909
4873 257 1 32.6841 36.8615 46.6383 1.008 0.12909
4874 257 1 32.6835 38.9894 45.3583 1.008 0.15086
4875 257 1 30.3568 39.509 47.2809 1.008 0.07222
4876 257 1 31.5424 40.7493 46.847 1.008 0.07222
4877 257 1 29.794 42.0873 45.676 1.008 0.09202
4878 257 1 28.7817 41.2503 44.5171 1.008 0.09202
4879 257 1 28.7649 40.81 47.5496 1.008 0.10167
4880 257 1 27.7453 39.914 46.4137 1.008 0.10167
4881 257 1 26.8802 42.0278 47.6905 1.008 0.08773
4882 257 1 27.7667 42.9254 46.459 1.008 0.08773
4883 257 1 26.4583 41.8257 45.977 1.008 0.08773
4884 258 4 47.7056 7.05498 32.5102 15.999 -0.35515
4885 258 2 48.8463 7.45295 31.7894 12.011 0.03297
4886 258 2 46.498 7.40558 31.8786 12.011 0.01762
4887 258 2 46.3465 8.90694 31.6927 12.011 -0.23743
4888 258 2 45.0306 9.24415 31.055 12.011 -0.24423
4889 258 3 50.0485 6.97096 32.5504 12.011 -0.1837
4890 258 3 50.9523 7.82139 33.0002 12.011 -0.23415
4891 258 1 50.8169 8.87969 32.8152 1.008 0.12909
4892 258 1 51.8329 7.50581 33.5424 1.008 0.12909
4893 258 1 50.1358 5.90032 32.7087 1.008 0.15086
4894 258 1 48.9034 8.54076 31.756 1.008 0.07222
4895 258 1 48.8977 7.07146 30.7704 1.008 0.07222
4896 258 1 46.4213 6.91025 30.9127 1.008 0.09202
4897 258 1 45.6944 7.02926 32.5101 1.008 0.09202
4898 258 1 47.1175 9.28367 31.0259 1.008 0.10167
4899 258 1 46.4128 9.42505 32.6425 1.008 0.10167
4900 258 1 45.1158 10.1843 30.5211 1.008 0.08773
4901 258 1 44.7792 8.46245 30.3449 1.008 0.08773
4902 258 1 44.2566 9.33656 31.8104 1.008 0.08773
4903 259 4 17.6466 31.7516 42.9419 15.999 -0.35515
4904 259 2 18.0396 32.22 44.2024 12.011 0.03297
4905 259 2 16.3824 32.2334 42.568 12.011 0.01762
4906 259 2 15.2605 31.8225 43.5009 12.011 -0.23743
4907 259 2 13.938 32.3366 43.0001 12.011 -0.24423
4908 259 3 19.4046 31.6698 44.4823 12.011 -0.1837
4909 259 3 19.6208 30.886 45.5217 12.011 -0.23415
4910 259 1 18.7972 30.6432 46.1835 1.008 0.12909
4911 259 1 20.596 30.472 45.745 1.008 0.12909
4912 259 1 20.1955 31.9352 43.786 1.008 0.15086
4913 259 1 17.3737 31.822 44.9643 1.008 0.07222
4914 259 1 18.0709 33.3033 44.2952 1.008 0.07222
4915 259 1 16.4058 33.3179 42.4516 1.008 0.09202
4916 259 1 16.1771 31.7797 41.6086 1.008 0.09202
4917 259 1 15.4072 32.2671 44.4747 1.008 0.10167
4918 259 1 15.2096 30.7441 43.596 1.008 0.10167
4919 259 1 13.2615 32.4665 43.8399 1.008 0.08773
4920 259 1 14.0813 33.3023 42.5212 1.008 0.08773
4921 259 1 13.5052 31.6341 42.2892 1.008 0.08773
4922 260 4 33.6807 9.34374 37.7345 15.999 -0.35515
4923 260 2 33.1098 8.07506 37.5303 12.011 0.03297
4924 260 2 33.4111 9.87536 39.0091 12.011 0.01762
4925 260 2 31.9158 10.0571 39.2672 12.011 -0.23743
4926 260 2 31.6878 10.6645 40.6284 12.011 -0.24423
4927 260 3 33.5129 7.61555 36.1587 12.011 -0.1837
4928 260 3 32.6031 7.3479 35.2395 12.011 -0.23415
4929 260 1 31.5533 7.46338 35.4841 1.008 0.12909
4930 260 1 32.8621 7.01006 34.2451 1.008 0.12909
4931 260 1 34.5774 7.51848 35.9616 1.008 0.15086
4932 260 1 32.0226 8.15297 37.5342 1.008 0.07222
4933 260 1 33.4084 7.32074 38.2568 1.008 0.07222
4934 260 1 33.8434 9.23719 39.7789 1.008 0.09202
4935 260 1 33.922 10.8368 39.0601 1.008 0.09202
4936 260 1 31.4069 9.09756 39.2743 1.008 0.10167
4937 260 1 31.4518 10.683 38.5138 1.008 0.10167
4938 260 1 30.7081 10.3664 40.9935 1.008 0.08773
4939 260 1 32.4385 10.287 41.3182 1.008 0.08773
4940 260 1 31.747 11.7505 40.5781 1.008 0.08773
4941 261 4 37.9105 20.0885 36.6836 15.999 -0.35515
4942 261 2 36.9791 19.6091 35.7445 12.011 0.03297
4943 261 2 39.0549 20.6593 36.0948 12.011 0.01762
4944 261 2 39.8299 19.645 35.2593 12.011 -0.23743
4945 261 2 41.0676 20.2847 34.6823 12.011 -0.24423
4946 261 3 35.7917 19.1062 36.5096 12.011 -0.1837
4947 261 3 35.4303 17.8416 36.4251 12.011 -0.23415
4948 261 1 35.9867 17.1755 35.7811 1.008 0.12909
4949 261 1 34.5784 17.4471 36.9607 1.008 0.12909
4950 261 1 35.2541 19.8181 37.1312 1.008 0.15086
4951 261 1 37.4059 18.7641 35.211 1.008 0.07222
4952 261 1 36.642 20.3399 35.0124 1.008 0.07222
4953 261 1 38.7869 21.5176 35.4772 1.008 0.09202
4954 261 1 39.6724 21.0341 36.9119 1.008 0.09202
4955 261 1 39.2363 19.317 34.4096 1.008 0.10167
4956 261 1 40.1137 18.7749 35.8493 1.008 0.10167
4957 261 1 41.3411 19.7691 33.7647 1.008 0.08773
4958 261 1 40.8578 21.3237 34.44 1.008 0.08773
4959 261 1 41.8903 20.2316 35.3931 1.008 0.08773
4960 262 4 8.86331 25.3618 38.2748 15.999 -0.35515
4961 262 2 8.5585 24.6389 39.4387 12.011 0.03297
4962 262 2 7.7557 26.0233 37.7224 12.011 0.01762
4963 262 2 6.63517 25.0682 37.3243 12.011 -0.23743
4964 262 2 5.49046 25.8364 36.7161 12.011 -0.24423
4965 262 3 9.81966 24.0138 39.9399 12.011 -0.1837
4966 262 3 9.94617 22.7101 40.0532 12.011 -0.23415
4967 262 1 9.11163 22.081 39.7801 1.008 0.12909
4968 262 1 10.8586 22.2381 40.3918 1.008 0.12909
4969 262 1 10.6377 24.6756 40.1636 1.008 0.15086
4970 262 1 7.88084 23.8213 39.2053 1.008 0.07222
4971 262 1 8.13554 25.2419 40.2348 1.008 0.07222
4972 262 1 7.37968 26.762 38.4294 1.008 0.09202
4973 262 1 8.1229 26.5584 36.847 1.008 0.09202
4974 262 1 6.23079 24.5747 38.2025 1.008 0.10167
4975 262 1 6.97564 24.3082 36.6227 1.008 0.10167
4976 262 1 4.56392 25.2913 36.8821 1.008 0.08773
4977 262 1 5.40619 26.7995 37.2071 1.008 0.08773
4978 262 1 5.64935 25.983 35.6512 1.008 0.08773
4979 263 4 28.0228 33.9496 20.826 15.999 -0.35515
4980 263 2 27.7862 34.5064 22.0965 12.011 0.03297
4981 263 2 28.5934 32.6643 20.8843 12.011 0.01762
4982 263 2 29.9496 32.6511 21.5906 12.011 -0.23743
4983 263 2 30.5229 31.2562 21.5905 12.011 -0.24423
4984 263 3 27.142 35.8467 21.8847 12.011 -0.1837
4985 263 3 27.7131 36.9493 22.3317 12.011 -0.23415
4986 263 1 28.659 36.8799 22.8573 1.008 0.12909
4987 263 1 27.2741 37.9292 22.1983 1.008 0.12909
4988 263 1 26.1966 35.8637 21.3488 1.008 0.15086
4989 263 1 28.7322 34.6837 22.6094 1.008 0.07222
4990 263 1 27.1475 33.9073 22.7445 1.008 0.07222
4991 263 1 27.9092 31.9745 21.3795 1.008 0.09202
4992 263 1 28.7049 32.3253 19.8544 1.008 0.09202
4993 263 1 29.8379 32.9347 22.634 1.008 0.10167
4994 263 1 30.6615 33.3311 21.1275 1.008 0.10167
4995 263 1 31.1841 31.1442 22.4451 1.008 0.08773
4996 263 1 29.7168 30.5334 21.6874 1.008 0.08773
4997 263 1 31.0777 31.0723 20.6731 1.008 0.08773
ITEM: TIMESTEP
20
ITEM: NUMBER OF ATOMS
4997
ITEM: BOX BOUNDS pp pp pp
0.0000000000000000e+00 5.1985757000000000e+01
0.0000000000000000e+00 5.1985757000000000e+01
0.0000000000000000e+00 5.1985757000000000e+01
ITEM: ATOMS id mol type x y z mass q
1 1 4 39.2317 40.1708 9.28319 15.999 -0.35515
2 1 2 39.4577 41.1329 8.27179 12.011 0.03297
3 1 2 39.5017 38.8466 8.83584 12.011 0.01762
4 1 2 38.5026 38.4023 7.75474 12.011 -0.23743
5 1 2 38.6924 36.9439 7.34908 12.011 -0.24423
6 1 3 39.2885 42.5067 8.86325 12.011 -0.1837
7 1 3 38.316 43.3459 8.50031 12.011 -0.23415
8 1 1 37.5949 43.0617 7.74919 1.008 0.12909
9 1 1 38.2069 44.3217 8.95206 1.008 0.12909
10 1 1 39.9927 42.8053 9.62153 1.008 0.15086
11 1 1 38.7239 41.0329 7.47559 1.008 0.07222
12 1 1 40.4502 41.0172 7.83118 1.008 0.07222
13 1 1 40.5327 38.7671 8.4685 1.008 0.09202
14 1 1 39.421 38.1789 9.69755 1.008 0.09202
15 1 1 38.6189 38.9915 6.84735 1.008 0.10167
16 1 1 37.4773 38.5625 8.102 1.008 0.10167
17 1 1 38.2818 36.7624 6.35742 1.008 0.08773
18 1 1 39.7516 36.6821 7.32236 1.008 0.08773
19 1 1 38.1951 36.2704 8.0469 1.008 0.08773
20 2 4 12.0911 25.9758 41.1837 15.999 -0.35515
21 2 2 13.2435 26.7698 41.0216 12.011 0.03297
22 2 2 11.8177 25.6013 42.5294 12.011 0.01762
23 2 2 12.9138 24.676 43.0827 12.011 -0.23743
24 2 2 12.5969 24.185 44.4907 12.011 -0.24423
25 2 3 13.3647 27.1698 39.584 12.011 -0.1837
26 2 3 14.4021 26.8342 38.8163 12.011 -0.23415
27 2 1 15.2191 26.2259 39.1771 1.008 0.12909
28 2 1 14.4304 27.1669 37.7895 1.008 0.12909
29 2 1 12.5743 27.7712 39.1624 1.008 0.15086
30 2 1 14.1485 26.2284 41.2967 1.008 0.07222
31 2 1 13.1696 27.6816 41.6033 1.008 0.07222
32 2 1 11.6687 26.4867 43.1595 1.008 0.09202
33 2 1 10.8696 25.0562 42.5366 1.008 0.09202
34 2 1 13.8685 25.1892 43.1445 1.008 0.10167
35 2 1 13.0665 23.823 42.4153 1.008 0.10167
36 2 1 13.5041 23.8827 45.0136 1.008 0.08773
37 2 1 12.1212 24.9777 45.0712 1.008 0.08773
38 2 1 11.9227 23.3287 44.4723 1.008 0.08773
39 3 4 15.2899 42.5581 6.2667 15.999 -0.35515
40 3 2 14.516 42.0607 5.19166 12.011 0.03297
41 3 2 15.7481 41.5339 7.14262 12.011 0.01762
42 3 2 14.5862 40.8774 7.88591 12.011 -0.23743
43 3 2 15.0738 39.8572 8.90794 12.011 -0.24423
44 3 3 14.2293 43.1816 4.23252 12.011 -0.1837
45 3 3 13.0015 43.6607 4.01389 12.011 -0.23415
46 3 1 12.1471 43.2489 4.529 1.008 0.12909
47 3 1 12.8313 44.4752 3.32436 1.008 0.12909
48 3 1 15.0685 43.6006 3.70143 1.008 0.15086
49 3 1 13.5614 41.6836 5.5472 1.008 0.07222
50 3 1 15.0192 41.249 4.66918 1.008 0.07222
51 3 1 16.315 40.7705 6.6002 1.008 0.09202
52 3 1 16.4334 41.9853 7.8658 1.008 0.09202
53 3 1 13.9323 40.3522 7.19218 1.008 0.10167
54 3 1 13.9819 41.6462 8.3763 1.008 0.10167
55 3 1 14.2833 39.1516 9.1518 1.008 0.08773
56 3 1 15.923 39.2933 8.51895 1.008 0.08773
57 3 1 15.3894 40.3489 9.82857 1.008 0.08773
58 4 4 40.0196 26.4659 17.7765 15.999 -0.35515
59 4 2 39.8422 27.8358 18.0809 12.011 0.03297
60 4 2 38.7842 25.7827 17.6003 12.011 0.01762
61 4 2 38.0078 25.709 18.9234 12.011 -0.23743
62 4 2 36.7343 24.881 18.8055 12.011 -0.24423
63 4 3 41.19 28.5044 18.1023 12.011 -0.1837
64 4 3 41.7373 29.0274 19.202 12.011 -0.23415
65 4 1 41.2244 29.0025 20.1516 1.008 0.12909
66 4 1 42.719 29.4815 19.1755 1.008 0.12909
67 4 1 41.7336 28.5435 17.1717 1.008 0.15086
68 4 1 39.4148 27.9566 19.0726 1.008 0.07222
69 4 1 39.1769 28.3195 17.3625 1.008 0.07222
70 4 1 38.1841 26.2667 16.8188 1.008 0.09202
71 4 1 39.0055 24.7673 17.2557 1.008 0.09202
72 4 1 37.7045 26.6983 19.2598 1.008 0.10167
73 4 1 38.6482 25.2936 19.7061 1.008 0.10167
74 4 1 36.0337 25.1353 19.599 1.008 0.08773
75 4 1 36.2428 25.0601 17.8478 1.008 0.08773
76 4 1 36.9543 23.8163 18.8735 1.008 0.08773
77 5 4 34.5975 2.01062 36.2962 15.999 -0.35515
78 5 2 34.0614 1.77433 37.5812 12.011 0.03297
79 5 2 36.0194 2.07748 36.3053 12.011 0.01762
80 5 2 36.5232 3.29144 37.1009 12.011 -0.23743
81 5 2 38.0359 3.45524 37.0182 12.011 -0.24423
82 5 3 32.5715 1.59783 37.4691 12.011 -0.1837
83 5 3 31.6875 2.43912 38.0111 12.011 -0.23415
84 5 1 32.0076 3.30122 38.5768 1.008 0.12909
85 5 1 30.6234 2.28679 37.8909 1.008 0.12909
86 5 1 32.2194 0.746933 36.9084 1.008 0.15086
87 5 1 34.2253 2.63457 38.2227 1.008 0.07222
88 5 1 34.5278 0.902141 38.0417 1.008 0.07222
89 5 1 36.4441 1.14827 36.7056 1.008 0.09202
90 5 1 36.3575 2.1689 35.2684 1.008 0.09202
91 5 1 36.2838 3.20595 38.1585 1.008 0.10167
92 5 1 36.0384 4.20291 36.7403 1.008 0.10167
93 5 1 38.4024 4.04962 37.8538 1.008 0.08773
94 5 1 38.5342 2.48536 37.0541 1.008 0.08773
95 5 1 38.328 3.95333 36.0926 1.008 0.08773
96 6 4 21.3058 23.0452 20.3718 15.999 -0.35515
97 6 2 20.0155 23.2504 19.828 12.011 0.03297
98 6 2 22.333 23.4614 19.4786 12.011 0.01762
99 6 2 22.3386 22.5741 18.2256 12.011 -0.23743
100 6 2 23.4707 22.9157 17.2718 12.011 -0.24423
101 6 3 18.9885 22.9469 20.8848 12.011 -0.1837
102 6 3 18.132 21.9262 20.822 12.011 -0.23415
103 6 1 18.1149 21.2571 19.9755 1.008 0.12909
104 6 1 17.4461 21.729 21.6355 1.008 0.12909
105 6 1 18.9816 23.5765 21.7579 1.008 0.15086
106 6 1 19.8246 22.5622 19.0097 1.008 0.07222
107 6 1 19.9107 24.2683 19.4482 1.008 0.07222
108 6 1 22.2165 24.5222 19.2167 1.008 0.09202
109 6 1 23.2949 23.3631 19.9908 1.008 0.09202
110 6 1 21.423 22.6793 17.6488 1.008 0.10167
111 6 1 22.4095 21.5228 18.5216 1.008 0.10167
112 6 1 23.215 22.6192 16.261 1.008 0.08773
113 6 1 23.6585 23.9893 17.2514 1.008 0.08773
114 6 1 24.3825 22.387 17.5508 1.008 0.08773
115 7 4 3.80505 32.6227 4.26679 15.999 -0.35515
116 7 2 2.7208 31.7701 4.57563 12.011 0.03297
117 7 2 3.86588 32.9263 2.88514 12.011 0.01762
118 7 2 4.1529 31.6433 2.08296 12.011 -0.23743
119 7 2 4.43694 31.8782 0.604313 12.011 -0.24423
120 7 3 2.65492 31.651 6.07486 12.011 -0.1837
121 7 3 2.82538 30.5562 6.81707 12.011 -0.23415
122 7 1 3.04318 29.5997 6.37833 1.008 0.12909
123 7 1 2.75594 30.6052 7.89799 1.008 0.12909
124 7 1 2.45117 32.586 6.5521 1.008 0.15086
125 7 1 2.83784 30.7698 4.18571 1.008 0.07222
126 7 1 1.78075 32.1757 4.19282 1.008 0.07222
127 7 1 2.94295 33.3994 2.53793 1.008 0.09202
128 7 1 4.68228 33.6307 2.73092 1.008 0.09202
129 7 1 3.33655 30.9154 2.14933 1.008 0.10167
130 7 1 5.01379 31.1499 2.53954 1.008 0.10167
131 7 1 4.30102 30.9541 0.0498443 1.008 0.08773
132 7 1 3.75014 32.6225 0.211851 1.008 0.08773
133 7 1 5.45666 32.2254 0.463704 1.008 0.08773
134 8 4 20.588 9.36324 27.1947 15.999 -0.35515
135 8 2 20.926 7.99667 27.1121 12.011 0.03297
136 8 2 19.8015 9.77119 26.0862 12.011 0.01762
137 8 2 20.6591 9.77999 24.8187 12.011 -0.23743
138 8 2 19.9366 10.3878 23.624 12.011 -0.24423
139 8 3 21.521 7.57831 28.4262 12.011 -0.1837
140 8 3 22.7825 7.18549 28.5417 12.011 -0.23415
141 8 1 23.4278 7.15137 27.6743 1.008 0.12909
142 8 1 23.2083 6.91171 29.4986 1.008 0.12909
143 8 1 20.8851 7.61944 29.2991 1.008 0.15086
144 8 1 21.6865 7.84432 26.3487 1.008 0.07222
145 8 1 20.0628 7.37258 26.8697 1.008 0.07222
146 8 1 18.9266 9.1189 25.9656 1.008 0.09202
147 8 1 19.4322 10.781 26.2861 1.008 0.09202
148 8 1 20.9766 8.77578 24.5395 1.008 0.10167
149 8 1 21.5706 10.3401 25.0213 1.008 0.10167
150 8 1 20.4108 10.0819 22.6942 1.008 0.08773
151 8 1 18.8971 10.0592 23.6016 1.008 0.08773
152 8 1 19.9471 11.4765 23.6726 1.008 0.08773
153 9 4 37.7449 4.75129 32.9118 15.999 -0.35515
154 9 2 38.05 3.89632 31.8312 12.011 0.03297
155 9 2 37.2082 5.98778 32.4623 12.011 0.01762
156 9 2 38.2479 6.79283 31.6885 12.011 -0.23743
157 9 2 37.708 8.19001 31.3803 12.011 -0.24423
158 9 3 38.3934 2.54236 32.3796 12.011 -0.1837
159 9 3 39.6068 2.00831 32.2714 12.011 -0.23415
160 9 1 40.3947 2.54671 31.7767 1.008 0.12909
161 9 1 39.8356 1.03917 32.688 1.008 0.12909
162 9 1 37.6182 1.9995 32.8906 1.008 0.15086
163 9 1 38.9171 4.26742 31.2874 1.008 0.07222
164 9 1 37.2148 3.8363 31.1329 1.008 0.07222
165 9 1 36.3075 5.83441 31.8473 1.008 0.09202
166 9 1 36.9115 6.56539 33.3458 1.008 0.09202
167 9 1 38.5417 6.32223 30.7571 1.008 0.10167
168 9 1 39.14 6.88838 32.2999 1.008 0.10167
169 9 1 38.2092 8.67157 30.5482 1.008 0.08773
170 9 1 36.639 8.159 31.1311 1.008 0.08773
171 9 1 37.8471 8.84085 32.2494 1.008 0.08773
172 10 4 29.6657 27.5942 33.6272 15.999 -0.35515
173 10 2 29.8281 27.0148 34.9037 12.011 0.03297
174 10 2 28.6486 26.9475 32.8788 12.011 0.01762
175 10 2 29.0557 25.5095 32.5208 12.011 -0.23743
176 10 2 28.0383 24.8331 31.6115 12.011 -0.24423
177 10 3 30.7956 27.8617 35.6747 12.011 -0.1837
178 10 3 31.9991 27.4143 36.0072 12.011 -0.23415
179 10 1 32.274 26.4161 35.7116 1.008 0.12909
180 10 1 32.7226 28.0004 36.5599 1.008 0.12909
181 10 1 30.4914 28.8582 35.9484 1.008 0.15086
182 10 1 30.2693 26.0238 34.8204 1.008 0.07222
183 10 1 28.8836 26.9193 35.4418 1.008 0.07222
184 10 1 27.7026 26.964 33.435 1.008 0.09202
185 10 1 28.4979 27.522 31.9599 1.008 0.09202
186 10 1 29.1417 24.8868 33.4094 1.008 0.10167
187 10 1 30.0386 25.5117 32.0423 1.008 0.10167
188 10 1 28.1175 23.7496 31.6753 1.008 0.08773
189 10 1 27.0265 25.1164 31.9007 1.008 0.08773
190 10 1 28.1813 25.1257 30.5712 1.008 0.08773
191 11 4 31.4092 26.2806 41.9552 15.999 -0.35515
192 11 2 32.6965 26.2144 41.3581 12.011 0.03297
193 11 2 30.458 25.5594 41.1871 12.011 0.01762
194 11 2 30.2281 26.2357 39.8211 12.011 -0.23743
195 11 2 29.1578 25.537 38.9825 12.011 -0.24423
196 11 3 33.7881 26.7556 42.2508 12.011 -0.1837
197 11 3 34.6483 27.7146 41.8694 12.011 -0.23415
198 11 1 34.5645 28.1385 40.9138 1.008 0.12909
199 11 1 35.3429 28.1094 42.5611 1.008 0.12909
200 11 1 33.8133 26.3479 43.2729 1.008 0.15086
201 11 1 32.7375 26.7952 40.4532 1.008 0.07222
202 11 1 32.9572 25.1816 41.1496 1.008 0.07222
203 11 1 30.7733 24.5204 41.0535 1.008 0.09202
204 11 1 29.518 25.5387 41.7375 1.008 0.09202
205 11 1 31.1284 26.2379 39.2071 1.008 0.10167
206 11 1 29.9569 27.2885 39.9609 1.008 0.10167
207 11 1 29.26 25.7953 37.928 1.008 0.08773
208 11 1 29.2623 24.4549 39.0658 1.008 0.08773
209 11 1 28.1564 25.8184 39.3117 1.008 0.08773
210 12 4 4.57342 10.7831 46.2555 15.999 -0.35515
211 12 2 5.41157 11.67 45.542 12.011 0.03297
212 12 2 4.61588 11.0021 47.6604 12.011 0.01762
213 12 2 6.00119 10.6583 48.2304 12.011 -0.23743
214 12 2 6.04938 10.7625 49.7509 12.011 -0.24423
215 12 3 5.19633 11.4525 44.0691 12.011 -0.1837
216 12 3 6.14032 10.9876 43.2472 12.011 -0.23415
217 12 1 7.12881 10.7453 43.6068 1.008 0.12909
218 12 1 5.94198 10.8333 42.1953 1.008 0.12909
219 12 1 4.21935 11.6847 43.6765 1.008 0.15086
220 12 1 6.45837 11.4574 45.743 1.008 0.07222
221 12 1 5.21428 12.7081 45.8172 1.008 0.07222
222 12 1 4.33744 12.0372 47.8964 1.008 0.09202
223 12 1 3.86495 10.3543 48.1236 1.008 0.09202
224 12 1 6.76114 11.3373 47.8487 1.008 0.10167
225 12 1 6.29111 9.65214 47.9158 1.008 0.10167
226 12 1 7.07189 10.8982 50.0959 1.008 0.08773
227 12 1 5.46371 11.6157 50.0968 1.008 0.08773
228 12 1 5.64753 9.8652 50.2204 1.008 0.08773
229 13 4 37.0449 48.0956 15.9612 15.999 -0.35515
230 13 2 37.792 49.2151 15.5313 12.011 0.03297
231 13 2 37.8163 46.9015 16.0012 12.011 0.01762
232 13 2 38.2599 46.4788 14.5906 12.011 -0.23743
233 13 2 38.9775 45.1345 14.5833 12.011 -0.24423
234 13 3 36.9254 50.4395 15.6456 12.011 -0.1837
235 13 3 36.5379 51.1691 14.5969 12.011 -0.23415
236 13 1 36.8406 50.9125 13.5921 1.008 0.12909
237 13 1 35.9013 0.0490555 14.7207 1.008 0.12909
238 13 1 36.6036 50.7209 16.6349 1.008 0.15086
239 13 1 38.0658 49.117 14.4836 1.008 0.07222
240 13 1 38.7076 49.3258 16.1158 1.008 0.07222
241 13 1 38.6829 47.0303 16.6612 1.008 0.09202
242 13 1 37.1915 46.1166 16.4395 1.008 0.09202
243 13 1 38.9528 47.2015 14.1654 1.008 0.10167
244 13 1 37.4008 46.4461 13.9159 1.008 0.10167
245 13 1 39.5997 45.0342 13.6956 1.008 0.08773
246 13 1 39.6238 45.0387 15.4577 1.008 0.08773
247 13 1 38.2671 44.3088 14.5946 1.008 0.08773
248 14 4 16.6821 7.51209 28.6468 15.999 -0.35515
249 14 2 16.3317 8.8796 28.5876 12.011 0.03297
250 14 2 15.5971 6.64405 28.3435 12.011 0.01762
251 14 2 14.4118 6.80983 29.3165 12.011 -0.23743
252 14 2 13.2845 5.83158 29.0164 12.011 -0.24423
253 14 3 17.5477 9.70743 28.9113 12.011 -0.1837
254 14 3 17.6184 10.6 29.9007 12.011 -0.23415
255 14 1 16.7866 10.7849 30.5549 1.008 0.12909
256 14 1 18.5437 11.1237 30.0926 1.008 0.12909
257 14 1 18.4304 9.53314 28.3183 1.008 0.15086
258 14 1 15.5938 9.14828 29.3358 1.008 0.07222
259 14 1 15.9468 9.13624 27.6006 1.008 0.07222
260 14 1 15.2759 6.80948 27.3067 1.008 0.09202
261 14 1 15.973 5.61711 28.4114 1.008 0.09202
262 14 1 13.9742 7.80405 29.2504 1.008 0.10167
263 14 1 14.7387 6.67764 30.3511 1.008 0.10167
264 14 1 12.3407 6.20429 29.4121 1.008 0.08773
265 14 1 13.1703 5.69773 27.9385 1.008 0.08773
266 14 1 13.4837 4.85718 29.4636 1.008 0.08773
267 15 4 10.2799 39.4007 45.5949 15.999 -0.35515
268 15 2 9.45245 39.3748 44.4484 12.011 0.03297
269 15 2 11.6478 39.1525 45.2905 12.011 0.01762
270 15 2 11.8539 37.7192 44.7729 12.011 -0.23743
271 15 2 13.325 37.383 44.5527 12.011 -0.24423
272 15 3 8.05666 39.7653 44.8516 12.011 -0.1837
273 15 3 7.00955 38.9402 44.775 12.011 -0.23415
274 15 1 7.11407 37.9314 44.4052 1.008 0.12909
275 15 1 6.02339 39.2592 45.0843 1.008 0.12909
276 15 1 7.91508 40.7676 45.223 1.008 0.15086
277 15 1 9.39241 38.3695 44.0392 1.008 0.07222
278 15 1 9.83519 40.038 43.6697 1.008 0.07222
279 15 1 12.0163 39.8892 44.5661 1.008 0.09202
280 15 1 12.2261 39.2897 46.2096 1.008 0.09202
281 15 1 11.3551 37.5719 43.8171 1.008 0.10167
282 15 1 11.4092 37.0059 45.4718 1.008 0.10167
283 15 1 13.4345 36.5568 43.8529 1.008 0.08773
284 15 1 13.8555 38.2435 44.1414 1.008 0.08773
285 15 1 13.8106 37.1033 45.4879 1.008 0.08773
286 16 4 22.8514 40.8365 29.6614 15.999 -0.35515
287 16 2 22.9701 41.4787 28.4064 12.011 0.03297
288 16 2 23.9099 39.918 29.9032 12.011 0.01762
289 16 2 23.85 38.7464 28.9103 12.011 -0.23743
290 16 2 24.8831 37.6785 29.2248 12.011 -0.24423
291 16 3 21.8851 42.5135 28.2922 12.011 -0.1837
292 16 3 20.9011 42.4561 27.3905 12.011 -0.23415
293 16 1 20.8341 41.6489 26.6764 1.008 0.12909
294 16 1 20.1333 43.2166 27.3547 1.008 0.12909
295 16 1 21.9153 43.3353 28.9888 1.008 0.15086
296 16 1 22.8137 40.7759 27.5923 1.008 0.07222
297 16 1 23.9577 41.9281 28.2833 1.008 0.07222
298 16 1 24.8791 40.4297 29.8517 1.008 0.09202
299 16 1 23.8029 39.5342 30.9238 1.008 0.09202
300 16 1 24.0417 39.0737 27.89 1.008 0.10167
301 16 1 22.8507 38.3035 28.919 1.008 0.10167
302 16 1 25.0933 37.0703 28.3481 1.008 0.08773
303 16 1 25.8132 38.1376 29.5578 1.008 0.08773
304 16 1 24.5261 37.0261 30.0206 1.008 0.08773
305 17 4 19.5294 38.1164 46.7237 15.999 -0.35515
306 17 2 20.7301 37.5068 47.1525 12.011 0.03297
307 17 2 18.4336 37.7814 47.5661 12.011 0.01762
308 17 2 18.1014 36.283 47.472 12.011 -0.23743
309 17 2 16.8567 35.9137 48.2685 12.011 -0.24423
310 17 3 21.8656 37.9926 46.3001 12.011 -0.1837
311 17 3 22.5591 37.1884 45.4925 12.011 -0.23415
312 17 1 22.3291 36.1393 45.3973 1.008 0.12909
313 17 1 23.3805 37.5598 44.8999 1.008 0.12909
314 17 1 22.123 39.0379 46.364 1.008 0.15086
315 17 1 20.6902 36.4294 47.0136 1.008 0.07222
316 17 1 20.9266 37.7097 48.2075 1.008 0.07222
317 17 1 18.6466 38.0731 48.6023 1.008 0.09202
318 17 1 17.5676 38.3649 47.2399 1.008 0.09202
319 17 1 18.9107 35.6705 47.8639 1.008 0.10167
320 17 1 17.9731 35.9966 46.425 1.008 0.10167
321 17 1 16.8532 34.8528 48.5104 1.008 0.08773
322 17 1 16.821 36.4715 49.2058 1.008 0.08773
323 17 1 15.9501 36.1379 47.7074 1.008 0.08773
324 18 4 33.5816 23.3318 37.7527 15.999 -0.35515
325 18 2 33.2424 24.6788 38.0079 12.011 0.03297
326 18 2 32.7257 22.3601 38.3317 12.011 0.01762
327 18 2 32.8536 22.3899 39.8548 12.011 -0.23743
328 18 2 31.9898 21.3353 40.5258 12.011 -0.24423
329 18 3 34.1809 25.5676 37.2317 12.011 -0.1837
330 18 3 35.0509 26.4266 37.7588 12.011 -0.23415
331 18 1 35.1662 26.5477 38.8335 1.008 0.12909
332 18 1 35.736 26.9854 37.1212 1.008 0.12909
333 18 1 34.185 25.4607 36.1641 1.008 0.15086
334 18 1 33.4042 24.9134 39.0564 1.008 0.07222
335 18 1 32.2029 24.8723 37.7361 1.008 0.07222
336 18 1 31.6835 22.5226 37.9985 1.008 0.09202
337 18 1 33.0619 21.3782 37.9506 1.008 0.09202
338 18 1 32.5115 23.3421 40.2201 1.008 0.10167
339 18 1 33.8976 22.2786 40.1416 1.008 0.10167
340 18 1 31.7712 21.6281 41.5533 1.008 0.08773
341 18 1 31.037 21.2145 39.9942 1.008 0.08773
342 18 1 32.5004 20.367 40.5422 1.008 0.08773
343 19 4 44.6683 25.2537 50.6785 15.999 -0.35515
344 19 2 44.6978 26.5474 50.1078 12.011 0.03297
345 19 2 44.9539 24.2302 49.7301 12.011 0.01762
346 19 2 43.86 24.1696 48.6507 12.011 -0.23743
347 19 2 44.0457 23.0468 47.6407 12.011 -0.24423
348 19 3 44.5119 27.5559 51.2041 12.011 -0.1837
349 19 3 43.4559 28.3679 51.2707 12.011 -0.23415
350 19 1 42.6868 28.3256 50.5191 1.008 0.12909
351 19 1 43.3386 29.0836 0.0855475 1.008 0.12909
352 19 1 45.2768 27.6079 51.9597 1.008 0.15086
353 19 1 43.8669 26.6885 49.421 1.008 0.07222
354 19 1 45.6279 26.7267 49.564 1.008 0.07222
355 19 1 45.9389 24.3836 49.2763 1.008 0.09202
356 19 1 45.0103 23.2814 50.2704 1.008 0.09202
357 19 1 43.8658 25.0767 48.066 1.008 0.10167
358 19 1 42.8768 24.0894 49.1199 1.008 0.10167
359 19 1 43.5749 23.2838 46.6878 1.008 0.08773
360 19 1 45.1045 22.8344 47.473 1.008 0.08773
361 19 1 43.5676 22.1432 48.0106 1.008 0.08773
362 20 4 38.9871 27.9546 30.1603 15.999 -0.35515
363 20 2 39.1488 29.2597 30.6749 12.011 0.03297
364 20 2 39.501 27.8324 28.8402 12.011 0.01762
365 20 2 38.5968 28.5716 27.8529 12.011 -0.23743
366 20 2 39.0167 28.349 26.4057 12.011 -0.24423
367 20 3 38.8032 29.2461 32.1416 12.011 -0.1837
368 20 3 37.7351 29.856 32.6569 12.011 -0.23415
369 20 1 37.0655 30.4138 32.0268 1.008 0.12909
370 20 1 37.5056 29.8083 33.7125 1.008 0.12909
371 20 1 39.4617 28.704 32.798 1.008 0.15086
372 20 1 38.4539 29.9221 30.1677 1.008 0.07222
373 20 1 40.1639 29.6392 30.5196 1.008 0.07222
374 20 1 40.5321 28.2052 28.7804 1.008 0.09202
375 20 1 39.5322 26.7696 28.5836 1.008 0.09202
376 20 1 38.6229 29.6439 28.0369 1.008 0.10167
377 20 1 37.5624 28.25 27.9988 1.008 0.10167
378 20 1 38.6336 29.142 25.7674 1.008 0.08773
379 20 1 40.104 28.3412 26.3122 1.008 0.08773
380 20 1 38.641 27.3984 26.0274 1.008 0.08773
381 21 4 35.2785 23.3503 35.901 15.999 -0.35515
382 21 2 36.5995 23.0969 36.3253 12.011 0.03297
383 21 2 34.8791 22.7754 34.671 12.011 0.01762
384 21 2 35.6161 23.5229 33.5639 12.011 -0.23743
385 21 2 35.1625 23.0694 32.1861 12.011 -0.24423
386 21 3 36.7495 23.5296 37.7586 12.011 -0.1837
387 21 3 37.5783 24.5003 38.1497 12.011 -0.23415
388 21 1 38.1831 25.0241 37.4193 1.008 0.12909
389 21 1 37.6358 24.8241 39.1849 1.008 0.12909
390 21 1 36.1313 23.0357 38.4874 1.008 0.15086
391 21 1 37.334 23.6332 35.7118 1.008 0.07222
392 21 1 36.7831 22.0329 36.3017 1.008 0.07222
393 21 1 35.0296 21.6802 34.6528 1.008 0.09202
394 21 1 33.7931 22.9479 34.5833 1.008 0.09202
395 21 1 36.6826 23.3507 33.6473 1.008 0.10167
396 21 1 35.4433 24.5892 33.6923 1.008 0.10167
397 21 1 35.938 23.2823 31.4477 1.008 0.08773
398 21 1 34.9663 21.9869 32.1842 1.008 0.08773
399 21 1 34.2418 23.5856 31.8888 1.008 0.08773
400 22 4 22.7981 5.56831 20.7295 15.999 -0.35515
401 22 2 22.244 6.55668 21.5741 12.011 0.03297
402 22 2 24.1776 5.79081 20.46 12.011 0.01762
403 22 2 24.3918 7.0651 19.6328 12.011 -0.23743
404 22 2 25.8511 7.24812 19.2313 12.011 -0.24423
405 22 3 20.826 6.17405 21.9007 12.011 -0.1837
406 22 3 19.7642 6.88269 21.5078 12.011 -0.23415
407 22 1 19.8763 7.78781 20.9295 1.008 0.12909
408 22 1 18.759 6.56541 21.7503 1.008 0.12909
409 22 1 20.6769 5.27399 22.4745 1.008 0.15086
410 22 1 22.2027 7.51398 21.0606 1.008 0.07222
411 22 1 22.8375 6.681 22.4823 1.008 0.07222
412 22 1 24.7545 5.81637 21.394 1.008 0.09202
413 22 1 24.544 4.9444 19.8745 1.008 0.09202
414 22 1 24.1039 7.95384 20.1903 1.008 0.10167
415 22 1 23.762 7.03229 18.74 1.008 0.10167
416 22 1 26.0592 8.28931 18.9909 1.008 0.08773
417 22 1 26.5165 6.95068 20.0442 1.008 0.08773
418 22 1 26.0982 6.64195 18.3591 1.008 0.08773
419 23 4 44.0141 14.4879 8.31145 15.999 -0.35515
420 23 2 44.6984 14.1571 7.13133 12.011 0.03297
421 23 2 42.9604 13.5977 8.63156 12.011 0.01762
422 23 2 41.8305 13.5935 7.5834 12.011 -0.23743
423 23 2 40.6721 12.6663 7.95565 12.011 -0.24423
424 23 3 45.789 15.1792 6.96948 12.011 -0.1837
425 23 3 45.8317 16.0428 5.95258 12.011 -0.23415
426 23 1 45.0772 16.0352 5.17804 1.008 0.12909
427 23 1 46.6191 16.7824 5.87691 1.008 0.12909
428 23 1 46.5505 15.2192 7.73288 1.008 0.15086
429 23 1 44.0376 14.2489 6.27082 1.008 0.07222
430 23 1 45.0915 13.1402 7.17868 1.008 0.07222
431 23 1 43.3747 12.5932 8.77814 1.008 0.09202
432 23 1 42.5583 13.9349 9.59367 1.008 0.09202
433 23 1 42.1958 13.2456 6.62174 1.008 0.10167
434 23 1 41.4539 14.608 7.43722 1.008 0.10167
435 23 1 40.0849 12.406 7.07622 1.008 0.08773
436 23 1 41.041 11.7348 8.39236 1.008 0.08773
437 23 1 40.006 13.1339 8.68199 1.008 0.08773
438 24 4 35.5533 14.4881 16.0402 15.999 -0.35515
439 24 2 34.6755 15.0837 15.1059 12.011 0.03297
440 24 2 35.6268 13.0763 15.8808 12.011 0.01762
441 24 2 34.2967 12.4054 16.2426 12.011 -0.23743
442 24 2 34.3981 10.8854 16.2178 12.011 -0.24423
443 24 3 34.7555 16.5787 15.2478 12.011 -0.1837
444 24 3 33.7316 17.3321 15.6592 12.011 -0.23415
445 24 1 32.7792 16.8916 15.9097 1.008 0.12909
446 24 1 33.8282 18.4042 15.7586 1.008 0.12909
447 24 1 35.6945 17.0477 15.0032 1.008 0.15086
448 24 1 33.6464 14.8011 15.3136 1.008 0.07222
449 24 1 34.9128 14.7733 14.086 1.008 0.07222
450 24 1 35.9442 12.8183 14.8622 1.008 0.09202
451 24 1 36.39 12.6944 16.5609 1.008 0.09202
452 24 1 33.5098 12.6837 15.545 1.008 0.10167
453 24 1 33.9767 12.7423 17.2323 1.008 0.10167
454 24 1 33.4167 10.4335 16.0898 1.008 0.08773
455 24 1 35.0314 10.5546 15.3919 1.008 0.08773
456 24 1 34.8322 10.5061 17.1431 1.008 0.08773
457 25 4 19.6462 17.2729 28.0969 15.999 -0.35515
458 25 2 19.8255 16.4408 29.2272 12.011 0.03297
459 25 2 19.828 18.6505 28.4015 12.011 0.01762
460 25 2 18.7247 19.1562 29.3396 12.011 -0.23743
461 25 2 18.8115 20.6583 29.5822 12.011 -0.24423
462 25 3 19.7481 15.003 28.7935 12.011 -0.1837
463 25 3 18.7825 14.1616 29.1691 12.011 -0.23415
464 25 1 17.9862 14.4743 29.8259 1.008 0.12909
465 25 1 18.7773 13.1407 28.8145 1.008 0.12909
466 25 1 20.5265 14.6435 28.1434 1.008 0.15086
467 25 1 19.0258 16.5912 29.947 1.008 0.07222
468 25 1 20.777 16.6452 29.7234 1.008 0.07222
469 25 1 20.8215 18.8223 28.8338 1.008 0.09202
470 25 1 19.7809 19.2126 27.4645 1.008 0.09202
471 25 1 18.7868 18.6771 30.3143 1.008 0.10167
472 25 1 17.7453 18.9024 28.9253 1.008 0.10167
473 25 1 18.2984 20.9297 30.5027 1.008 0.08773
474 25 1 19.8511 20.979 29.6693 1.008 0.08773
475 25 1 18.3555 21.2168 28.7651 1.008 0.08773
476 26 4 4.61146 48.5532 39.4286 15.999 -0.35515
477 26 2 4.95503 48.8033 38.0802 12.011 0.03297
478 26 2 4.9809 49.5481 40.3375 12.011 0.01762
479 26 2 6.48602 49.6731 40.2851 12.011 -0.23743
480 26 2 6.93417 50.6835 41.3013 12.011 -0.24423
481 26 3 4.56393 47.5897 37.2822 12.011 -0.1837
482 26 3 5.43442 46.8413 36.6002 12.011 -0.23415
483 26 1 6.48294 47.0853 36.559 1.008 0.12909
484 26 1 5.09838 45.9603 36.0835 1.008 0.12909
485 26 1 3.53129 47.2914 37.3255 1.008 0.15086
486 26 1 6.02664 48.8975 37.9299 1.008 0.07222
487 26 1 4.46266 49.7128 37.7344 1.008 0.07222
488 26 1 4.48012 50.4814 40.0903 1.008 0.09202
489 26 1 4.66174 49.2438 41.3304 1.008 0.09202
490 26 1 6.85797 50.0908 39.3557 1.008 0.10167
491 26 1 6.97776 48.7272 40.4627 1.008 0.10167
492 26 1 7.95639 51.0662 41.0128 1.008 0.08773
493 26 1 6.22964 51.478 41.2918 1.008 0.08773
494 26 1 6.97999 50.2913 42.3555 1.008 0.08773
495 27 4 36.4832 4.18869 41.3334 15.999 -0.35515
496 27 2 36.8581 4.35688 42.6833 12.011 0.03297
497 27 2 35.4197 3.25418 41.2165 12.011 0.01762
498 27 2 35.8892 1.8471 41.6102 12.011 -0.23743
499 27 2 34.8367 0.781398 41.3356 12.011 -0.24423
500 27 3 37.8191 5.50294 42.7949 12.011 -0.1837
501 27 3 39.0744 5.35811 43.2194 12.011 -0.23415
502 27 1 39.4668 4.39541 43.5171 1.008 0.12909
503 27 1 39.7383 6.20982 43.2512 1.008 0.12909
504 27 1 37.4672 6.47936 42.5061 1.008 0.15086
505 27 1 37.3576 3.4748 43.0747 1.008 0.07222
506 27 1 35.9795 4.52798 43.2962 1.008 0.07222
507 27 1 34.5585 3.5617 41.8242 1.008 0.09202
508 27 1 35.0913 3.2562 40.177 1.008 0.09202
509 27 1 36.1077 1.79535 42.675 1.008 0.10167
510 27 1 36.8151 1.60586 41.0824 1.008 0.10167
511 27 1 35.0084 51.8906 41.9572 1.008 0.08773
512 27 1 33.8366 1.16108 41.5542 1.008 0.08773
513 27 1 34.8611 0.466275 40.2938 1.008 0.08773
514 28 4 21.2443 4.3269 10.1231 15.999 -0.35515
515 28 2 20.6915 5.20719 11.0797 12.011 0.03297
516 28 2 20.5091 3.12069 10.0402 12.011 0.01762
517 28 2 20.5819 2.37638 11.3757 12.011 -0.23743
518 28 2 19.9756 1.00013 11.2609 12.011 -0.24423
519 28 3 21.4605 6.49584 11.0446 12.011 -0.1837
520 28 3 22.1835 6.93569 12.0759 12.011 -0.23415
521 28 1 22.2395 6.38061 12.9992 1.008 0.12909
522 28 1 22.7357 7.85802 12.0123 1.008 0.12909
523 28 1 21.4204 7.0621 10.1294 1.008 0.15086
524 28 1 20.8144 4.81948 12.0882 1.008 0.07222
525 28 1 19.625 5.36173 10.8987 1.008 0.07222
526 28 1 19.4739 3.31809 9.7465 1.008 0.09202
527 28 1 20.9576 2.50229 9.26057 1.008 0.09202
528 28 1 20.0438 2.86527 12.178 1.008 0.10167
529 28 1 21.6252 2.27192 11.6955 1.008 0.10167
530 28 1 19.6585 0.594103 12.2283 1.008 0.08773
531 28 1 19.1047 0.997436 10.5883 1.008 0.08773
532 28 1 20.7512 0.358413 10.8594 1.008 0.08773
533 29 4 41.9534 34.3708 34.4139 15.999 -0.35515
534 29 2 43.2265 34.7644 34.8675 12.011 0.03297
535 29 2 40.9289 35.1624 35.0045 12.011 0.01762
536 29 2 40.8438 34.9758 36.5297 12.011 -0.23743
537 29 2 39.6468 35.7004 37.1275 12.011 -0.24423
538 29 3 44.3174 34.0237 34.1419 12.011 -0.1837
539 29 3 45.2071 33.2545 34.7601 12.011 -0.23415
540 29 1 45.1497 33.0877 35.8244 1.008 0.12909
541 29 1 45.9935 32.7431 34.2188 1.008 0.12909
542 29 1 44.3659 34.1361 33.0704 1.008 0.15086
543 29 1 43.3426 34.5238 35.92 1.008 0.07222
544 29 1 43.3504 35.8407 34.7516 1.008 0.07222
545 29 1 41.0701 36.2239 34.7683 1.008 0.09202
546 29 1 39.9876 34.8564 34.5478 1.008 0.09202
547 29 1 41.7278 35.3794 37.0172 1.008 0.10167
548 29 1 40.7927 33.9184 36.7976 1.008 0.10167
549 29 1 39.7829 35.8636 38.1964 1.008 0.08773
550 29 1 39.5063 36.6686 36.6443 1.008 0.08773
551 29 1 38.7363 35.1239 36.9735 1.008 0.08773
552 30 4 25.1696 30.3822 46.1559 15.999 -0.35515
553 30 2 24.8926 29.9898 44.8273 12.011 0.03297
554 30 2 25.2671 29.2732 47.0377 12.011 0.01762
555 30 2 23.9135 28.5619 47.1784 12.011 -0.23743
556 30 2 23.9649 27.4381 48.2008 12.011 -0.24423
557 30 3 24.9261 31.2115 43.9511 12.011 -0.1837
558 30 3 23.8664 31.696 43.3007 12.011 -0.23415
559 30 1 22.8969 31.2281 43.3635 1.008 0.12909
560 30 1 23.9545 32.5863 42.6922 1.008 0.12909
561 30 1 25.8688 31.722 43.8583 1.008 0.15086
562 30 1 23.8904 29.5809 44.7509 1.008 0.07222
563 30 1 25.6017 29.2347 44.4789 1.008 0.07222
564 30 1 26.0391 28.5749 46.6929 1.008 0.09202
565 30 1 25.5829 29.6481 48.0162 1.008 0.09202
566 30 1 23.6092 28.1054 46.239 1.008 0.10167
567 30 1 23.1352 29.281 47.4492 1.008 0.10167
568 30 1 23.2011 26.6989 47.9818 1.008 0.08773
569 30 1 24.9257 26.9238 48.1678 1.008 0.08773
570 30 1 23.8144 27.815 49.2125 1.008 0.08773
571 31 4 4.73182 38.3883 12.1345 15.999 -0.35515
572 31 2 4.34244 38.0008 13.438 12.011 0.03297
573 31 2 6.13304 38.4714 11.9207 12.011 0.01762
574 31 2 6.67544 39.697 12.6409 12.011 -0.23743
575 31 2 8.15779 39.8938 12.36 12.011 -0.24423
576 31 3 2.85222 37.766 13.3825 12.011 -0.1837
577 31 3 1.95648 38.5639 13.9698 12.011 -0.23415
578 31 1 2.26539 39.4303 14.5386 1.008 0.12909
579 31 1 0.895779 38.3749 13.8851 1.008 0.12909
580 31 1 2.51037 36.9218 12.8139 1.008 0.15086
581 31 1 4.54313 38.8278 14.1333 1.008 0.07222
582 31 1 4.88018 37.0968 13.7623 1.008 0.07222
583 31 1 6.64023 37.5497 12.2354 1.008 0.09202
584 31 1 6.31039 38.5824 10.8417 1.008 0.09202
585 31 1 6.54303 39.5898 13.7128 1.008 0.10167
586 31 1 6.11144 40.5756 12.3254 1.008 0.10167
587 31 1 8.63188 40.4692 13.1568 1.008 0.08773
588 31 1 8.66422 38.9258 12.2891 1.008 0.08773
589 31 1 8.31114 40.4183 11.4129 1.008 0.08773
590 32 4 41.3165 46.1801 5.03964 15.999 -0.35515
591 32 2 40.72 45.3871 6.04696 12.011 0.03297
592 32 2 41.8448 47.4025 5.53984 12.011 0.01762
593 32 2 40.7214 48.3241 6.04264 12.011 -0.23743
594 32 2 41.2332 49.6964 6.46701 12.011 -0.24423
595 32 3 40.3246 44.0649 5.45328 12.011 -0.1837
596 32 3 39.0562 43.6693 5.31804 12.011 -0.23415
597 32 1 38.2405 44.3 5.63614 1.008 0.12909
598 32 1 38.8103 42.7038 4.89831 1.008 0.12909
599 32 1 41.1215 43.4109 5.13841 1.008 0.15086
600 32 1 39.8152 45.854 6.42849 1.008 0.07222
601 32 1 41.4024 45.2253 6.88156 1.008 0.07222
602 32 1 42.5874 47.208 6.3233 1.008 0.09202
603 32 1 42.3743 47.8984 4.72085 1.008 0.09202
604 32 1 40.2119 47.8992 6.9051 1.008 0.10167
605 32 1 39.9678 48.4395 5.25934 1.008 0.10167
606 32 1 40.5273 50.185 7.13689 1.008 0.08773
607 32 1 42.1888 49.6119 6.98798 1.008 0.08773
608 32 1 41.3788 50.3436 5.60174 1.008 0.08773
609 33 4 44.1587 1.9862 30.1682 15.999 -0.35515
610 33 2 44.6931 1.63231 28.9088 12.011 0.03297
611 33 2 42.7833 2.3374 30.0728 12.011 0.01762
612 33 2 42.5818 3.62901 29.2977 12.011 -0.23743
613 33 2 41.1401 4.09555 29.3581 12.011 -0.24423
614 33 3 46.1151 1.16913 29.0677 12.011 -0.1837
615 33 3 47.1741 1.83258 28.5971 12.011 -0.23415
616 33 1 47.0625 2.75808 28.0524 1.008 0.12909
617 33 1 48.1778 1.46055 28.7558 1.008 0.12909
618 33 1 46.2789 0.243708 29.5855 1.008 0.15086
619 33 1 44.7274 2.50231 28.263 1.008 0.07222
620 33 1 44.0834 0.867595 28.4241 1.008 0.07222
621 33 1 42.1878 1.50787 29.67 1.008 0.09202
622 33 1 42.3987 2.5671 31.0599 1.008 0.09202
623 33 1 42.8334 3.49951 28.2491 1.008 0.10167
624 33 1 43.2308 4.40162 29.7188 1.008 0.10167
625 33 1 40.9504 4.75351 28.516 1.008 0.08773
626 33 1 40.4494 3.25085 29.2977 1.008 0.08773
627 33 1 40.9353 4.63889 30.2815 1.008 0.08773
628 34 4 48.0044 11.3198 32.3178 15.999 -0.35515
629 34 2 47.2297 12.3235 31.691 12.011 0.03297
630 34 2 47.8396 11.2786 33.7275 12.011 0.01762
631 34 2 48.4744 12.5197 34.3586 12.011 -0.23743
632 34 2 48.3942 12.4883 35.8799 12.011 -0.24423
633 34 3 47.3069 12.1284 30.2018 12.011 -0.1837
634 34 3 47.972 12.9427 29.3854 12.011 -0.23415
635 34 1 48.4901 13.8135 29.7632 1.008 0.12909
636 34 1 48.0495 12.7485 28.3207 1.008 0.12909
637 34 1 46.8573 11.2468 29.7835 1.008 0.15086
638 34 1 47.6427 13.3069 31.9088 1.008 0.07222
639 34 1 46.1908 12.2955 32.0221 1.008 0.07222
640 34 1 46.7776 11.1989 33.9956 1.008 0.09202
641 34 1 48.3385 10.3765 34.1034 1.008 0.09202
642 34 1 47.9644 13.4238 34.0289 1.008 0.10167
643 34 1 49.5163 12.6076 34.0362 1.008 0.10167
644 34 1 48.4687 13.4942 36.2882 1.008 0.08773
645 34 1 47.4419 12.0625 36.2051 1.008 0.08773
646 34 1 49.1964 11.8842 36.3057 1.008 0.08773
647 35 4 38.966 16.2454 24.1377 15.999 -0.35515
648 35 2 39.7479 16.9936 25.0497 12.011 0.03297
649 35 2 37.6216 16.7019 24.0496 12.011 0.01762
650 35 2 36.878 16.4473 25.3667 12.011 -0.23743
651 35 2 35.3954 16.8011 25.2998 12.011 -0.24423
652 35 3 41.1712 16.5121 24.949 12.011 -0.1837
653 35 3 41.8082 15.8656 25.9289 12.011 -0.23415
654 35 1 41.3276 15.6614 26.874 1.008 0.12909
655 35 1 42.8344 15.5426 25.8064 1.008 0.12909
656 35 1 41.693 16.7172 24.0274 1.008 0.15086
657 35 1 39.4275 16.8226 26.0743 1.008 0.07222
658 35 1 39.6801 18.0661 24.8515 1.008 0.07222
659 35 1 37.5952 17.7666 23.7859 1.008 0.09202
660 35 1 37.1275 16.1524 23.2421 1.008 0.09202
661 35 1 37.3171 17.0601 26.1453 1.008 0.10167
662 35 1 37.0061 15.4063 25.6738 1.008 0.10167
663 35 1 34.9861 16.9654 26.2952 1.008 0.08773
664 35 1 35.249 17.7147 24.7201 1.008 0.08773
665 35 1 34.8207 16.0041 24.8278 1.008 0.08773
666 36 4 34.6833 24.6933 5.33743 15.999 -0.35515
667 36 2 35.122 23.4449 5.83586 12.011 0.03297
668 36 2 34.5225 24.6987 3.92618 12.011 0.01762
669 36 2 35.8774 24.5353 3.21462 12.011 -0.23743
670 36 2 35.7635 24.6119 1.69646 12.011 -0.24423
671 36 3 35.1507 23.513 7.33734 12.011 -0.1837
672 36 3 36.2695 23.4178 8.05944 12.011 -0.23415
673 36 1 37.2333 23.2774 7.59272 1.008 0.12909
674 36 1 36.2416 23.4897 9.13752 1.008 0.12909
675 36 1 34.2076 23.6583 7.83756 1.008 0.15086
676 36 1 36.1382 23.2339 5.51358 1.008 0.07222
677 36 1 34.4778 22.632 5.4944 1.008 0.07222
678 36 1 33.8112 23.9226 3.61906 1.008 0.09202
679 36 1 34.0845 25.6626 3.65304 1.008 0.09202
680 36 1 36.3309 23.5742 3.43696 1.008 0.10167
681 36 1 36.5831 25.287 3.5775 1.008 0.10167
682 36 1 36.6023 24.1133 1.21553 1.008 0.08773
683 36 1 34.8493 24.1232 1.35246 1.008 0.08773
684 36 1 35.7509 25.648 1.35892 1.008 0.08773
685 37 4 17.2118 49.1792 15.6948 15.999 -0.35515
686 37 2 18.1773 48.2988 16.2357 12.011 0.03297
687 37 2 16.276 49.6275 16.6687 12.011 0.01762
688 37 2 15.4123 48.4683 17.1757 12.011 -0.23743
689 37 2 14.3317 48.9416 18.1404 12.011 -0.24423
690 37 3 19.2015 48.0071 15.1718 12.011 -0.1837
691 37 3 19.4119 46.7937 14.6563 12.011 -0.23415
692 37 1 18.8526 45.9351 14.9919 1.008 0.12909
693 37 1 20.1421 46.6322 13.8744 1.008 0.12909
694 37 1 19.7799 48.84 14.8084 1.008 0.15086
695 37 1 17.725 47.3503 16.5161 1.008 0.07222
696 37 1 18.6461 48.7303 17.1222 1.008 0.07222
697 37 1 16.7854 50.1258 17.5037 1.008 0.09202
698 37 1 15.6249 50.3696 16.1959 1.008 0.09202
699 37 1 16.0034 47.7311 17.7156 1.008 0.10167
700 37 1 14.962 47.9519 16.3242 1.008 0.10167
701 37 1 14.0307 48.1328 18.8015 1.008 0.08773
702 37 1 14.7005 49.7464 18.7774 1.008 0.08773
703 37 1 13.4508 49.2979 17.6065 1.008 0.08773
704 38 4 21.0609 14.2448 37.2492 15.999 -0.35515
705 38 2 20.8894 13.6681 38.5296 12.011 0.03297
706 38 2 22.0724 15.245 37.2336 12.011 0.01762
707 38 2 21.6508 16.4631 38.0707 12.011 -0.23743
708 38 2 22.6487 17.6118 37.9744 12.011 -0.24423
709 38 3 19.91 12.5312 38.4182 12.011 -0.1837
710 38 3 18.712 12.5285 39.0059 12.011 -0.23415
711 38 1 18.3845 13.3606 39.6115 1.008 0.12909
712 38 1 18.0318 11.6956 38.8897 1.008 0.12909
713 38 1 20.2139 11.6849 37.8237 1.008 0.15086
714 38 1 20.4609 14.3884 39.2217 1.008 0.07222
715 38 1 21.841 13.3249 38.9422 1.008 0.07222
716 38 1 23.0255 14.8341 37.5889 1.008 0.09202
717 38 1 22.2243 15.5563 36.196 1.008 0.09202
718 38 1 21.5767 16.2051 39.1256 1.008 0.10167
719 38 1 20.6595 16.8023 37.7584 1.008 0.10167
720 38 1 22.5573 18.2795 38.829 1.008 0.08773
721 38 1 23.6717 17.2312 37.9592 1.008 0.08773
722 38 1 22.4943 18.1974 37.069 1.008 0.08773
723 39 4 47.4004 12.7164 15.2418 15.999 -0.35515
724 39 2 48.4225 13.6859 15.3879 12.011 0.03297
725 39 2 47.8704 11.5519 14.5666 12.011 0.01762
726 39 2 48.2276 11.8566 13.1009 12.011 -0.23743
727 39 2 48.6609 10.6212 12.3162 12.011 -0.24423
728 39 3 47.9522 14.8228 16.2533 12.011 -0.1837
729 39 3 47.8326 16.0796 15.8201 12.011 -0.23415
730 39 1 48.0653 16.3527 14.8079 1.008 0.12909
731 39 1 47.422 16.8545 16.4543 1.008 0.12909
732 39 1 47.6566 14.5872 17.2625 1.008 0.15086
733 39 1 48.6714 14.1142 14.4219 1.008 0.07222
734 39 1 49.3263 13.2433 15.8094 1.008 0.07222
735 39 1 48.7329 11.1277 15.098 1.008 0.09202
736 39 1 47.0712 10.8049 14.59 1.008 0.09202
737 39 1 49.0538 12.5621 13.0317 1.008 0.10167
738 39 1 47.3714 12.3197 12.6046 1.008 0.10167
739 39 1 49.2461 10.9075 11.4438 1.008 0.08773
740 39 1 49.2742 9.96062 12.93 1.008 0.08773
741 39 1 47.8059 10.0476 11.9649 1.008 0.08773
742 40 4 29.4742 36.1973 43.3258 15.999 -0.35515
743 40 2 30.0333 37.4869 43.4729 12.011 0.03297
744 40 2 28.7544 35.7336 44.4673 12.011 0.01762
745 40 2 29.5762 35.7282 45.7675 12.011 -0.23743
746 40 2 28.8129 35.1257 46.9425 12.011 -0.24423
747 40 3 30.7831 37.8487 42.2157 12.011 -0.1837
748 40 3 32.0718 38.1946 42.2025 12.011 -0.23415
749 40 1 32.6485 38.237 43.1162 1.008 0.12909
750 40 1 32.5774 38.4515 41.2798 1.008 0.12909
751 40 1 30.2307 37.8251 41.2896 1.008 0.15086
752 40 1 30.7597 37.5083 44.2789 1.008 0.07222
753 40 1 29.2675 38.2224 43.7097 1.008 0.07222
754 40 1 27.8531 36.3388 44.6013 1.008 0.09202
755 40 1 28.4283 34.7124 44.2631 1.008 0.09202
756 40 1 29.8032 36.7536 46.0442 1.008 0.10167
757 40 1 30.5256 35.1986 45.6484 1.008 0.10167
758 40 1 29.2211 35.48 47.8888 1.008 0.08773
759 40 1 27.7606 35.4137 46.8936 1.008 0.08773
760 40 1 28.8698 34.035 46.9282 1.008 0.08773
761 41 4 16.8909 36.2186 28.207 15.999 -0.35515
762 41 2 17.0359 37.1619 29.2498 12.011 0.03297
763 41 2 15.8418 36.5606 27.3105 12.011 0.01762
764 41 2 14.4742 36.4807 28.005 12.011 -0.23743
765 41 2 13.3271 36.6986 27.0293 12.011 -0.24423
766 41 3 18.2528 36.7971 30.0576 12.011 -0.1837
767 41 3 18.1988 36.388 31.3237 12.011 -0.23415
768 41 1 17.2556 36.2948 31.8376 1.008 0.12909
769 41 1 19.0922 36.1314 31.8777 1.008 0.12909
770 41 1 19.2093 36.8783 29.5658 1.008 0.15086
771 41 1 16.1831 37.1267 29.9243 1.008 0.07222
772 41 1 17.1199 38.1787 28.859 1.008 0.07222
773 41 1 16.0085 37.5586 26.8857 1.008 0.09202
774 41 1 15.8647 35.8487 26.48 1.008 0.09202
775 41 1 14.3782 37.2437 28.7751 1.008 0.10167
776 41 1 14.3595 35.5117 28.4976 1.008 0.10167
777 41 1 12.4295 37.0197 27.5543 1.008 0.08773
778 41 1 13.5947 37.4626 26.2983 1.008 0.08773
779 41 1 13.0898 35.7866 26.4827 1.008 0.08773
780 42 4 45.7626 36.1564 6.85266 15.999 -0.35515
781 42 2 46.6642 35.9499 7.91783 12.011 0.03297
782 42 2 45.6544 37.5341 6.52019 12.011 0.01762
783 42 2 44.988 38.3146 7.66442 12.011 -0.23743
784 42 2 44.6785 39.7518 7.27607 12.011 -0.24423
785 42 3 46.837 34.4705 8.12247 12.011 -0.1837
786 42 3 46.4928 33.8361 9.24596 12.011 -0.23415
787 42 1 46.0579 34.3675 10.0839 1.008 0.12909
788 42 1 46.6707 32.7745 9.36772 1.008 0.12909
789 42 1 47.3061 33.922 7.32638 1.008 0.15086
790 42 1 46.2783 36.3574 8.84899 1.008 0.07222
791 42 1 47.6171 36.442 7.71449 1.008 0.07222
792 42 1 46.6425 37.9484 6.2793 1.008 0.09202
793 42 1 45.0453 37.619 5.61568 1.008 0.09202
794 42 1 45.642 38.3641 8.53381 1.008 0.10167
795 42 1 44.0723 37.8055 7.97582 1.008 0.10167
796 42 1 44.572 40.3802 8.15805 1.008 0.08773
797 42 1 45.4916 40.151 6.67015 1.008 0.08773
798 42 1 43.7614 39.8148 6.69029 1.008 0.08773
799 43 4 23.8176 45.6843 20.1323 15.999 -0.35515
800 43 2 23.5827 46.4841 18.9905 12.011 0.03297
801 43 2 24.8321 46.214 20.9785 12.011 0.01762
802 43 2 26.201 46.1869 20.2815 12.011 -0.23743
803 43 2 27.3365 46.629 21.1955 12.011 -0.24423
804 43 3 22.4072 45.9153 18.2413 12.011 -0.1837
805 43 3 22.4853 45.4168 17.0051 12.011 -0.23415
806 43 1 23.4153 45.407 16.4587 1.008 0.12909
807 43 1 21.6157 45.004 16.5123 1.008 0.12909
808 43 1 21.4562 45.9138 18.7465 1.008 0.15086
809 43 1 24.4344 46.4511 18.3152 1.008 0.07222
810 43 1 23.4064 47.5259 19.2678 1.008 0.07222
811 43 1 24.5749 47.2303 21.3008 1.008 0.09202
812 43 1 24.8762 45.592 21.8778 1.008 0.09202
813 43 1 26.2203 46.8438 19.4139 1.008 0.10167
814 43 1 26.4065 45.1771 19.9215 1.008 0.10167
815 43 1 28.1949 46.9615 20.6145 1.008 0.08773
816 43 1 27.0213 47.4557 21.8338 1.008 0.08773
817 43 1 27.6618 45.8103 21.8374 1.008 0.08773
818 44 4 35.9116 14.672 5.49712 15.999 -0.35515
819 44 2 37.1785 14.2351 5.94938 12.011 0.03297
820 44 2 35.2466 15.4973 6.44619 12.011 0.01762
821 44 2 34.8812 14.7039 7.71221 12.011 -0.23743
822 44 2 34.0615 15.525 8.70132 12.011 -0.24423
823 44 3 37.8526 13.4813 4.83526 12.011 -0.1837
824 44 3 38.1427 12.1793 4.89508 12.011 -0.23415
825 44 1 37.9088 11.5912 5.76978 1.008 0.12909
826 44 1 38.6129 11.6719 4.0641 1.008 0.12909
827 44 1 38.0975 14.039 3.94596 1.008 0.15086
828 44 1 37.0732 13.5416 6.77969 1.008 0.07222
829 44 1 37.7921 15.0751 6.2823 1.008 0.07222
830 44 1 35.8648 16.369 6.69414 1.008 0.09202
831 44 1 34.331 15.8735 5.97907 1.008 0.09202
832 44 1 35.7735 14.3793 8.24379 1.008 0.10167
833 44 1 34.3331 13.7982 7.43824 1.008 0.10167
834 44 1 34.143 15.1167 9.70681 1.008 0.08773
835 44 1 34.4151 16.5566 8.73056 1.008 0.08773
836 44 1 33.007 15.5378 8.4257 1.008 0.08773
837 45 4 22.5693 24.1768 43.0044 15.999 -0.35515
838 45 2 22.5417 24.4519 44.3893 12.011 0.03297
839 45 2 21.736 25.0625 42.2654 12.011 0.01762
840 45 2 20.2611 24.7873 42.5797 12.011 -0.23743
841 45 2 19.3743 25.6122 41.6688 12.011 -0.24423
842 45 3 23.546 23.5525 45.0525 12.011 -0.1837
843 45 3 23.2111 22.5871 45.9109 12.011 -0.23415
844 45 1 22.1785 22.4095 46.181 1.008 0.12909
845 45 1 23.9643 21.9518 46.3596 1.008 0.12909
846 45 1 24.5827 23.7083 44.7979 1.008 0.15086
847 45 1 21.5638 24.2281 44.8152 1.008 0.07222
848 45 1 22.779 25.4987 44.587 1.008 0.07222
849 45 1 22.0116 26.1089 42.4543 1.008 0.09202
850 45 1 21.8929 24.9107 41.1926 1.008 0.09202
851 45 1 20.0137 25.0586 43.6033 1.008 0.10167
852 45 1 20.0364 23.7255 42.4596 1.008 0.10167
853 45 1 18.4123 25.8356 42.1135 1.008 0.08773
854 45 1 19.8687 26.5608 41.4931 1.008 0.08773
855 45 1 19.2143 25.14 40.6989 1.008 0.08773
856 46 4 45.0069 20.6863 22.5446 15.999 -0.35515
857 46 2 46.3132 21.0315 22.127 12.011 0.03297
858 46 2 44.3471 21.7477 23.2233 12.011 0.01762
859 46 2 45.0358 22.0574 24.5626 12.011 -0.23743
860 46 2 44.2925 23.1143 25.3699 12.011 -0.24423
861 46 3 46.8705 19.8969 21.3115 12.011 -0.1837
862 46 3 47.9219 19.164 21.6872 12.011 -0.23415
863 46 1 48.4442 19.3587 22.611 1.008 0.12909
864 46 1 48.2642 18.3338 21.0837 1.008 0.12909
865 46 1 46.3681 19.6596 20.3881 1.008 0.15086
866 46 1 46.9705 21.155 22.9841 1.008 0.07222
867 46 1 46.3133 21.9638 21.5582 1.008 0.07222
868 46 1 44.3028 22.6394 22.5854 1.008 0.09202
869 46 1 43.3147 21.4359 23.4109 1.008 0.09202
870 46 1 46.0438 22.4372 24.4097 1.008 0.10167
871 46 1 45.1318 21.1415 25.1522 1.008 0.10167
872 46 1 44.9562 23.5851 26.0924 1.008 0.08773
873 46 1 43.8978 23.8929 24.715 1.008 0.08773
874 46 1 43.4556 22.6756 25.9125 1.008 0.08773
875 47 4 23.4038 12.2637 14.6918 15.999 -0.35515
876 47 2 22.7685 12.4381 15.9427 12.011 0.03297
877 47 2 23.8862 10.9385 14.5109 12.011 0.01762
878 47 2 25.0185 10.6196 15.5003 12.011 -0.23743
879 47 2 25.6373 9.24953 15.2497 12.011 -0.24423
880 47 3 22.1773 13.8194 16.0005 12.011 -0.1837
881 47 3 22.5788 14.7592 16.8593 12.011 -0.23415
882 47 1 23.3675 14.5748 17.5733 1.008 0.12909
883 47 1 22.126 15.7421 16.8661 1.008 0.12909
884 47 1 21.3855 14.0432 15.3033 1.008 0.15086
885 47 1 23.4853 12.3712 16.7564 1.008 0.07222
886 47 1 21.9991 11.6804 16.1036 1.008 0.07222
887 47 1 23.0661 10.2159 14.608 1.008 0.09202
888 47 1 24.2668 10.8582 13.489 1.008 0.09202
889 47 1 24.6532 10.6087 16.5254 1.008 0.10167
890 47 1 25.7894 11.3937 15.4519 1.008 0.10167
891 47 1 26.1384 8.88412 16.1445 1.008 0.08773
892 47 1 24.8692 8.52384 14.9762 1.008 0.08773
893 47 1 26.3695 9.28816 14.4435 1.008 0.08773
894 48 4 43.3952 21.9089 6.89414 15.999 -0.35515
895 48 2 42.1251 21.2821 6.9291 12.011 0.03297
896 48 2 44.0091 21.9827 8.17726 12.011 0.01762
897 48 2 43.2234 22.9181 9.1092 12.011 -0.23743
898 48 2 43.9116 23.1238 10.455 12.011 -0.24423
899 48 3 41.6262 21.0982 5.52214 12.011 -0.1837
900 48 3 40.5194 21.6761 5.04992 12.011 -0.23415
901 48 1 39.9151 22.3141 5.67697 1.008 0.12909
902 48 1 40.2061 21.5373 4.02518 1.008 0.12909
903 48 1 42.2097 20.459 4.87992 1.008 0.15086
904 48 1 41.3977 21.8944 7.45572 1.008 0.07222
905 48 1 42.1718 20.3165 7.42979 1.008 0.07222
906 48 1 44.1142 20.9844 8.61729 1.008 0.09202
907 48 1 45.0218 22.3741 8.04471 1.008 0.09202
908 48 1 42.2327 22.5193 9.32001 1.008 0.10167
909 48 1 43.0782 23.8847 8.61995 1.008 0.10167
910 48 1 43.2004 23.4636 11.2061 1.008 0.08773
911 48 1 44.357 22.1925 10.8115 1.008 0.08773
912 48 1 44.7044 23.869 10.3805 1.008 0.08773
913 49 4 29.8393 11.09 18.1972 15.999 -0.35515
914 49 2 30.8443 12.0277 17.8649 12.011 0.03297
915 49 2 29.9341 9.8949 17.431 12.011 0.01762
916 49 2 29.6297 10.1683 15.9497 12.011 -0.23743
917 49 2 29.6004 8.89244 15.1171 12.011 -0.24423
918 49 3 30.7557 13.1896 18.8154 12.011 -0.1837
919 49 3 30.4312 14.4298 18.4358 12.011 -0.23415
920 49 1 30.2157 14.6636 17.4046 1.008 0.12909
921 49 1 30.3652 15.2358 19.1536 1.008 0.12909
922 49 1 30.9627 12.991 19.8542 1.008 0.15086
923 49 1 30.687 12.4252 16.8654 1.008 0.07222
924 49 1 31.8354 11.5709 17.8997 1.008 0.07222
925 49 1 30.9245 9.43756 17.5524 1.008 0.09202
926 49 1 29.2015 9.18255 17.8234 1.008 0.09202
927 49 1 30.3852 10.8132 15.5066 1.008 0.10167
928 49 1 28.6748 10.6929 15.8601 1.008 0.10167
929 49 1 29.7625 9.11062 14.063 1.008 0.08773
930 49 1 30.3822 8.20408 15.4427 1.008 0.08773
931 49 1 28.6437 8.38011 15.2143 1.008 0.08773
932 50 4 36.191 44.4723 48.9827 15.999 -0.35515
933 50 2 35.4566 44.4091 50.1888 12.011 0.03297
934 50 2 36.2263 45.7871 48.4408 12.011 0.01762
935 50 2 34.8227 46.2299 47.9993 12.011 -0.23743
936 50 2 34.8159 47.5769 47.288 12.011 -0.24423
937 50 3 35.6093 43.0413 50.795 12.011 -0.1837
938 50 3 34.5836 42.2123 51.0027 12.011 -0.23415
939 50 1 33.5755 42.4862 50.7366 1.008 0.12909
940 50 1 34.7391 41.2266 51.4153 1.008 0.12909
941 50 1 36.6082 42.7229 51.0527 1.008 0.15086
942 50 1 34.3961 44.5507 50.0034 1.008 0.07222
943 50 1 35.7899 45.1736 50.8916 1.008 0.07222
944 50 1 36.6528 46.4925 49.1647 1.008 0.09202
945 50 1 36.8874 45.775 47.5692 1.008 0.09202
946 50 1 34.139 46.3126 48.8435 1.008 0.10167
947 50 1 34.412 45.4705 47.3351 1.008 0.10167
948 50 1 33.8249 48.0256 47.3222 1.008 0.08773
949 50 1 35.5157 48.2636 47.7656 1.008 0.08773
950 50 1 35.1053 47.4673 46.2435 1.008 0.08773
951 51 4 44.9567 25.7331 32.6833 15.999 -0.35515
952 51 2 45.6476 25.5567 31.4644 12.011 0.03297
953 51 2 43.5575 25.5257 32.5482 12.011 0.01762
954 51 2 42.9401 26.5554 31.5937 12.011 -0.23743
955 51 2 41.4292 26.453 31.5576 12.011 -0.24423
956 51 3 47.121 25.6531 31.7491 12.011 -0.1837
957 51 3 47.906 26.6097 31.2522 12.011 -0.23415
958 51 1 47.512 27.3758 30.6037 1.008 0.12909
959 51 1 48.9578 26.6588 31.4961 1.008 0.12909
960 51 1 47.542 24.9106 32.4068 1.008 0.15086
961 51 1 45.4056 26.3528 30.7634 1.008 0.07222
962 51 1 45.3932 24.5996 31.0037 1.008 0.07222
963 51 1 43.3457 24.5092 32.1934 1.008 0.09202
964 51 1 43.0999 25.6364 33.537 1.008 0.09202
965 51 1 43.2877 26.4331 30.5685 1.008 0.10167
966 51 1 43.2255 27.5645 31.8885 1.008 0.10167
967 51 1 41.09 26.9146 30.6432 1.008 0.08773
968 51 1 41.099 25.4147 31.5484 1.008 0.08773
969 51 1 40.9649 26.9642 32.3997 1.008 0.08773
970 52 4 41.0472 8.29616 32.1581 15.999 -0.35515
971 52 2 41.6098 7.98112 30.9064 12.011 0.03297
972 52 2 41.8175 7.86305 33.27 12.011 0.01762
973 52 2 41.9912 6.33897 33.3137 12.011 -0.23743
974 52 2 42.7688 5.89735 34.547 12.011 -0.24423
975 52 3 40.7376 8.57222 29.8421 12.011 -0.1837
976 52 3 40.07 7.81917 28.9733 12.011 -0.23415
977 52 1 40.1621 6.74498 28.992 1.008 0.12909
978 52 1 39.398 8.2482 28.2394 1.008 0.12909
979 52 1 40.6159 9.64216 29.8315 1.008 0.15086
980 52 1 41.6569 6.90288 30.7502 1.008 0.07222
981 52 1 42.6036 8.38785 30.822 1.008 0.07222
982 52 1 42.7825 8.37886 33.2982 1.008 0.09202
983 52 1 41.2662 8.16869 34.1592 1.008 0.09202
984 52 1 42.5423 5.97138 32.4514 1.008 0.10167
985 52 1 41.0139 5.8461 33.3087 1.008 0.10167
986 52 1 43.2465 4.93755 34.3639 1.008 0.08773
987 52 1 43.5488 6.62091 34.8032 1.008 0.08773
988 52 1 42.1022 5.78964 35.4059 1.008 0.08773
989 53 4 3.63185 26.756 39.3212 15.999 -0.35515
990 53 2 4.50059 26.6704 40.4317 12.011 0.03297
991 53 2 3.57395 28.0671 38.7695 12.011 0.01762
992 53 2 2.92295 29.0634 39.7369 12.011 -0.23743
993 53 2 2.75221 30.4415 39.1091 12.011 -0.24423
994 53 3 4.57699 25.2378 40.886 12.011 -0.1837
995 53 3 4.13743 24.8137 42.0737 12.011 -0.23415
996 53 1 3.69635 25.4933 42.7865 1.008 0.12909
997 53 1 4.20543 23.7709 42.3541 1.008 0.12909
998 53 1 5.01104 24.5251 40.2046 1.008 0.15086
999 53 1 4.11315 27.2469 41.2684 1.008 0.07222
1000 53 1 5.49324 27.0476 40.1793 1.008 0.07222
1001 53 1 4.57657 28.4139 38.4939 1.008 0.09202
1002 53 1 2.9815 28.0163 37.8502 1.008 0.09202
1003 53 1 3.53419 29.1966 40.6275 1.008 0.10167
1004 53 1 1.95527 28.6796 40.0731 1.008 0.10167
1005 53 1 2.66813 31.2072 39.8775 1.008 0.08773
1006 53 1 3.61011 30.6888 38.4807 1.008 0.08773
1007 53 1 1.85728 30.4816 38.4883 1.008 0.08773
1008 54 4 31.9371 3.38046 26.9778 15.999 -0.35515
1009 54 2 31.2991 4.63293 26.8428 12.011 0.03297
1010 54 2 31.6757 2.50645 25.8872 12.011 0.01762
1011 54 2 30.1809 2.15165 25.8268 12.011 -0.23743
1012 54 2 29.8577 1.1087 24.7654 12.011 -0.24423
1013 54 3 31.7558 5.50795 27.9814 12.011 -0.1837
1014 54 3 30.9418 6.06568 28.8784 12.011 -0.23415
1015 54 1 29.8809 5.9064 28.819 1.008 0.12909
1016 54 1 31.337 6.66971 29.6833 1.008 0.12909
1017 54 1 32.8161 5.67125 28.0785 1.008 0.15086
1018 54 1 30.2215 4.54791 26.9302 1.008 0.07222
1019 54 1 31.5258 5.08835 25.8769 1.008 0.07222
1020 54 1 32.0158 2.94599 24.9403 1.008 0.09202
1021 54 1 32.2608 1.59466 26.0454 1.008 0.09202
1022 54 1 29.573 3.02429 25.5982 1.008 0.10167
1023 54 1 29.8563 1.79175 26.8041 1.008 0.10167
1024 54 1 28.8051 1.15581 24.4931 1.008 0.08773
1025 54 1 30.4466 1.28054 23.8632 1.008 0.08773
1026 54 1 30.0713 0.102685 25.125 1.008 0.08773
1027 55 4 23.8502 9.27666 40.617 15.999 -0.35515
1028 55 2 24.1929 9.17411 41.9854 12.011 0.03297
1029 55 2 24.9396 8.96975 39.7556 12.011 0.01762
1030 55 2 26.0647 10.0104 39.8867 12.011 -0.23743
1031 55 2 27.1954 9.77966 38.8904 12.011 -0.24423
1032 55 3 22.9553 9.39188 42.8119 12.011 -0.1837
1033 55 3 22.7969 10.4254 43.6438 12.011 -0.23415
1034 55 1 23.5689 11.1684 43.7729 1.008 0.12909
1035 55 1 21.8854 10.5516 44.2109 1.008 0.12909
1036 55 1 22.1631 8.66818 42.7128 1.008 0.15086
1037 55 1 24.8985 9.95181 42.2673 1.008 0.07222
1038 55 1 24.6457 8.2057 42.209 1.008 0.07222
1039 55 1 25.3123 7.9586 39.9611 1.008 0.09202
1040 55 1 24.5622 8.97276 38.7282 1.008 0.09202
1041 55 1 26.5123 9.98262 40.8779 1.008 0.10167
1042 55 1 25.656 11.0164 39.7574 1.008 0.10167
1043 55 1 28.1156 10.2508 39.23 1.008 0.08773
1044 55 1 27.3883 8.71203 38.77 1.008 0.08773
1045 55 1 26.9455 10.1896 37.9122 1.008 0.08773
1046 56 4 36.5887 42.6786 31.4176 15.999 -0.35515
1047 56 2 35.7323 43.005 32.4929 12.011 0.03297
1048 56 2 37.9616 42.8772 31.7401 12.011 0.01762
1049 56 2 38.2692 44.3664 31.9728 12.011 -0.23743
1050 56 2 39.751 44.6083 32.2274 12.011 -0.24423
1051 56 3 34.3213 42.6245 32.1378 12.011 -0.1837
1052 56 3 33.3235 43.5061 32.0404 12.011 -0.23415
1053 56 1 33.4816 44.5601 32.2055 1.008 0.12909
1054 56 1 32.331 43.191 31.7532 1.008 0.12909
1055 56 1 34.127 41.5822 31.9341 1.008 0.15086
1056 56 1 35.732 44.0757 32.6742 1.008 0.07222
1057 56 1 36.0435 42.5007 33.4086 1.008 0.07222
1058 56 1 38.2381 42.2819 32.6196 1.008 0.09202
1059 56 1 38.5661 42.5098 30.9037 1.008 0.09202
1060 56 1 37.7399 44.752 32.8423 1.008 0.10167
1061 56 1 37.9336 44.9556 31.1142 1.008 0.10167
1062 56 1 39.896 45.5263 32.7907 1.008 0.08773
1063 56 1 40.1821 43.7956 32.8126 1.008 0.08773
1064 56 1 40.3046 44.6757 31.2905 1.008 0.08773
1065 57 4 39.6811 7.84989 13.4134 15.999 -0.35515
1066 57 2 40.0463 7.94011 12.0513 12.011 0.03297
1067 57 2 40.4065 6.84349 14.1099 12.011 0.01762
1068 57 2 40.0666 5.44243 13.5778 12.011 -0.23743
1069 57 2 40.7398 4.33711 14.3836 12.011 -0.24423
1070 57 3 39.3147 9.10197 11.431 12.011 -0.1837
1071 57 3 38.4151 8.97542 10.4592 12.011 -0.23415
1072 57 1 38.1622 8.00863 10.049 1.008 0.12909
1073 57 1 37.9031 9.83917 10.0551 1.008 0.12909
1074 57 1 39.5389 10.0848 11.8131 1.008 0.15086
1075 57 1 39.7362 7.05212 11.5071 1.008 0.07222
1076 57 1 41.1265 8.04493 11.9401 1.008 0.07222
1077 57 1 41.485 7.03396 14.048 1.008 0.09202
1078 57 1 40.1298 6.90136 15.1669 1.008 0.09202
1079 57 1 40.3961 5.31795 12.5482 1.008 0.10167
1080 57 1 38.9831 5.29415 13.5821 1.008 0.10167
1081 57 1 40.8105 3.42017 13.8012 1.008 0.08773
1082 57 1 41.7504 4.63089 14.6732 1.008 0.08773
1083 57 1 40.1807 4.11652 15.293 1.008 0.08773
1084 58 4 6.56686 19.1617 20.1271 15.999 -0.35515
1085 58 2 5.76546 18.4872 19.1779 12.011 0.03297
1086 58 2 7.66101 18.3716 20.5792 12.011 0.01762
1087 58 2 7.1793 17.1415 21.3666 12.011 -0.23743
1088 58 2 8.3327 16.3404 21.9601 12.011 -0.24423
1089 58 3 4.7151 19.4383 18.6746 12.011 -0.1837
1090 58 3 3.40638 19.2729 18.8837 12.011 -0.23415
1091 58 1 3.02707 18.4231 19.4308 1.008 0.12909
1092 58 1 2.68572 19.9905 18.5159 1.008 0.12909
1093 58 1 5.05807 20.297 18.1221 1.008 0.15086
1094 58 1 5.24157 17.6534 19.6378 1.008 0.07222
1095 58 1 6.36924 18.0996 18.3548 1.008 0.07222
1096 58 1 8.28955 18.0714 19.7315 1.008 0.09202
1097 58 1 8.27727 18.9971 21.2328 1.008 0.09202
1098 58 1 6.62269 16.4577 20.7295 1.008 0.10167
1099 58 1 6.49789 17.4539 22.1623 1.008 0.10167
1100 58 1 8.02441 15.3175 22.1681 1.008 0.08773
1101 58 1 9.17447 16.3028 21.2672 1.008 0.08773
1102 58 1 8.68109 16.7847 22.8926 1.008 0.08773
1103 59 4 25.2353 38.8473 18.2288 15.999 -0.35515
1104 59 2 25.2806 40.0791 18.9115 12.011 0.03297
1105 59 2 26.5249 38.2694 18.0602 12.011 0.01762
1106 59 2 27.4866 39.1595 17.2433 12.011 -0.23743
1107 59 2 28.8011 38.4566 16.9526 12.011 -0.24423
1108 59 3 23.87 40.5585 19.1247 12.011 -0.1837
1109 59 3 23.392 41.6898 18.5988 12.011 -0.23415
1110 59 1 24.0118 42.3227 17.987 1.008 0.12909
1111 59 1 22.3715 42.0024 18.7662 1.008 0.12909
1112 59 1 23.2226 39.9447 19.7282 1.008 0.15086
1113 59 1 25.7918 40.8266 18.3078 1.008 0.07222
1114 59 1 25.8144 39.9725 19.8579 1.008 0.07222
1115 59 1 26.9712 38.044 19.0351 1.008 0.09202
1116 59 1 26.3831 37.3173 17.5421 1.008 0.09202
1117 59 1 27.7381 40.0786 17.7689 1.008 0.10167
1118 59 1 27.0476 39.4814 16.2973 1.008 0.10167
1119 59 1 29.532 39.1848 16.6283 1.008 0.08773
1120 59 1 29.1715 37.9663 17.8469 1.008 0.08773
1121 59 1 28.705 37.7103 16.1694 1.008 0.08773
1122 60 4 30.7413 33.1162 43.8126 15.999 -0.35515
1123 60 2 29.873 32.8949 42.7137 12.011 0.03297
1124 60 2 31.7687 34.072 43.5633 12.011 0.01762
1125 60 2 32.7163 33.5807 42.476 12.011 -0.23743
1126 60 2 33.9186 34.4739 42.2021 12.011 -0.24423
1127 60 3 28.7222 32.0309 43.1619 12.011 -0.1837
1128 60 3 28.4572 30.8254 42.6548 12.011 -0.23415
1129 60 1 29.0722 30.3951 41.881 1.008 0.12909
1130 60 1 27.6266 30.2383 43.0173 1.008 0.12909
1131 60 1 28.0999 32.4278 43.9446 1.008 0.15086
1132 60 1 30.3795 32.3572 41.917 1.008 0.07222
1133 60 1 29.5103 33.8405 42.307 1.008 0.07222
1134 60 1 31.4139 35.041 43.2476 1.008 0.09202
1135 60 1 32.3476 34.2071 44.4721 1.008 0.09202
1136 60 1 32.2157 33.3317 41.5255 1.008 0.10167
1137 60 1 33.1117 32.6631 42.8908 1.008 0.10167
1138 60 1 34.2974 34.2475 41.2104 1.008 0.08773
1139 60 1 33.6289 35.5162 42.2384 1.008 0.08773
1140 60 1 34.6754 34.2795 42.9559 1.008 0.08773
1141 61 4 23.6065 7.76479 1.55542 15.999 -0.35515
1142 61 2 23.1204 7.94682 2.87048 12.011 0.03297
1143 61 2 23.2562 6.4989 1.00547 12.011 0.01762
1144 61 2 23.9123 5.34604 1.78488 12.011 -0.23743
1145 61 2 23.6333 3.98505 1.15777 12.011 -0.24423
1146 61 3 23.4406 9.34818 3.3105 12.011 -0.1837
1147 61 3 24.2694 9.63239 4.31806 12.011 -0.23415
1148 61 1 24.7573 8.8496 4.87984 1.008 0.12909
1149 61 1 24.4818 10.6559 4.59452 1.008 0.12909
1150 61 1 22.9674 10.1496 2.76557 1.008 0.15086
1151 61 1 23.6142 7.27361 3.56689 1.008 0.07222
1152 61 1 22.0461 7.7682 2.92288 1.008 0.07222
1153 61 1 22.1671 6.38491 0.968759 1.008 0.09202
1154 61 1 23.6049 6.47339 51.9546 1.008 0.09202
1155 61 1 23.5455 5.29151 2.80737 1.008 0.10167
1156 61 1 24.9918 5.51074 1.84835 1.008 0.10167
1157 61 1 23.7793 3.18863 1.88473 1.008 0.08773
1158 61 1 22.6021 3.92623 0.803081 1.008 0.08773
1159 61 1 24.2957 3.79885 0.312459 1.008 0.08773
1160 62 4 32.3578 48.3106 15.8799 15.999 -0.35515
1161 62 2 32.3839 47.1563 15.0692 12.011 0.03297
1162 62 2 31.1823 49.0832 15.6783 12.011 0.01762
1163 62 2 31.1433 49.6834 14.263 12.011 -0.23743
1164 62 2 29.9581 50.6193 14.0613 12.011 -0.24423
1165 62 3 33.5861 46.3328 15.4292 12.011 -0.1837
1166 62 3 34.5909 46.0846 14.5865 12.011 -0.23415
1167 62 1 34.6008 46.4819 13.5832 1.008 0.12909
1168 62 1 35.4359 45.4855 14.8925 1.008 0.12909
1169 62 1 33.62 45.9369 16.4294 1.008 0.15086
1170 62 1 32.4925 47.4244 14.0221 1.008 0.07222
1171 62 1 31.4699 46.5717 15.189 1.008 0.07222
1172 62 1 30.2879 48.4786 15.8742 1.008 0.09202
1173 62 1 31.1929 49.8956 16.4108 1.008 0.09202
1174 62 1 31.055 48.9103 13.5047 1.008 0.10167
1175 62 1 32.0786 50.2115 14.0572 1.008 0.10167
1176 62 1 29.7207 50.7244 13.0041 1.008 0.08773
1177 62 1 29.0713 50.2336 14.5672 1.008 0.08773
1178 62 1 30.169 51.611 14.4614 1.008 0.08773
1179 63 4 44.9332 33.1791 17.997 15.999 -0.35515
1180 63 2 46.0303 34.0703 18.0039 12.011 0.03297
1181 63 2 43.6997 33.8273 18.2857 12.011 0.01762
1182 63 2 43.6737 34.372 19.7236 12.011 -0.23743
1183 63 2 42.321 34.9676 20.0992 12.011 -0.24423
1184 63 3 47.2612 33.3219 17.5712 12.011 -0.1837
1185 63 3 48.3126 33.1122 18.3678 12.011 -0.23415
1186 63 1 48.331 33.484 19.3809 1.008 0.12909
1187 63 1 49.1722 32.5519 18.0265 1.008 0.12909
1188 63 1 47.2716 32.9332 16.5656 1.008 0.15086
1189 63 1 46.2222 34.4365 19.0093 1.008 0.07222
1190 63 1 45.8457 34.9289 17.3554 1.008 0.07222
1191 63 1 43.5111 34.6274 17.5594 1.008 0.09202
1192 63 1 42.8993 33.0903 18.1689 1.008 0.09202
1193 63 1 44.411 35.1602 19.8632 1.008 0.10167
1194 63 1 43.9368 33.576 20.4255 1.008 0.10167
1195 63 1 42.423 35.6643 20.9295 1.008 0.08773
1196 63 1 41.8894 35.5104 19.2571 1.008 0.08773
1197 63 1 41.6171 34.1899 20.3959 1.008 0.08773
1198 64 4 28.8916 6.12126 2.92689 15.999 -0.35515
1199 64 2 28.5994 5.511 4.16765 12.011 0.03297
1200 64 2 29.18 7.5084 3.05537 12.011 0.01762
1201 64 2 27.9435 8.30329 3.51096 12.011 -0.23743
1202 64 2 28.1983 9.80617 3.54581 12.011 -0.24423
1203 64 3 28.42 4.03354 3.95704 12.011 -0.1837
1204 64 3 27.2649 3.39809 4.16814 12.011 -0.23415
1205 64 1 26.39 3.9308 4.50962 1.008 0.12909
1206 64 1 27.1718 2.33461 3.99926 1.008 0.12909
1207 64 1 29.2808 3.47955 3.6197 1.008 0.15086
1208 64 1 27.6637 5.88822 4.57292 1.008 0.07222
1209 64 1 29.3904 5.69822 4.89588 1.008 0.07222
1210 64 1 30.0209 7.6603 3.74329 1.008 0.09202
1211 64 1 29.4969 7.87214 2.07297 1.008 0.09202
1212 64 1 27.6293 8.01619 4.51163 1.008 0.10167
1213 64 1 27.0977 8.08719 2.85216 1.008 0.10167
1214 64 1 27.4943 10.302 4.2112 1.008 0.08773
1215 64 1 29.208 10.0196 3.90077 1.008 0.08773
1216 64 1 28.0909 10.2416 2.55224 1.008 0.08773
1217 65 4 45.3054 8.26719 25.9962 15.999 -0.35515
1218 65 2 45.7446 7.3952 27.0079 12.011 0.03297
1219 65 2 45.5523 9.62437 26.3219 12.011 0.01762
1220 65 2 44.7085 10.0866 27.5192 12.011 -0.23743
1221 65 2 44.8409 11.5754 27.844 12.011 -0.24423
1222 65 3 45.6047 5.9953 26.4965 12.011 -0.1837
1223 65 3 44.7661 5.12031 27.0438 12.011 -0.23415
1224 65 1 44.1662 5.40522 27.8919 1.008 0.12909
1225 65 1 44.6496 4.12478 26.643 1.008 0.12909
1226 65 1 46.1923 5.71363 25.6388 1.008 0.15086
1227 65 1 45.1223 7.48607 27.8936 1.008 0.07222
1228 65 1 46.7703 7.60683 27.295 1.008 0.07222
1229 65 1 46.6254 9.79976 26.4844 1.008 0.09202
1230 65 1 45.2561 10.1838 25.4388 1.008 0.09202
1231 65 1 45.0182 9.55091 28.405 1.008 0.10167
1232 65 1 43.6603 9.84214 27.3487 1.008 0.10167
1233 65 1 44.6252 11.7712 28.8935 1.008 0.08773
1234 65 1 45.8452 11.9432 27.6193 1.008 0.08773
1235 65 1 44.1351 12.1762 27.272 1.008 0.08773
1236 66 4 15.6011 29.2355 47.126 15.999 -0.35515
1237 66 2 15.397 30.615 47.2685 12.011 0.03297
1238 66 2 15.426 28.8512 45.7734 12.011 0.01762
1239 66 2 13.9727 29.0108 45.3109 12.011 -0.23743
1240 66 2 13.7748 28.4016 43.9388 12.011 -0.24423
1241 66 3 15.7194 30.9672 48.6845 12.011 -0.1837
1242 66 3 14.8043 31.4241 49.5402 12.011 -0.23415
1243 66 1 13.7809 31.5675 49.2315 1.008 0.12909
1244 66 1 15.0599 31.6566 50.5628 1.008 0.12909
1245 66 1 16.7381 30.8233 49.0051 1.008 0.15086
1246 66 1 14.3578 30.8671 47.0886 1.008 0.07222
1247 66 1 16.0091 31.1768 46.5677 1.008 0.07222
1248 66 1 16.1485 29.3456 45.1033 1.008 0.09202
1249 66 1 15.6535 27.7941 45.7401 1.008 0.09202
1250 66 1 13.6674 30.0513 45.2428 1.008 0.10167
1251 66 1 13.3005 28.5183 46.0111 1.008 0.10167
1252 66 1 12.8913 28.8252 43.4611 1.008 0.08773
1253 66 1 14.6392 28.5762 43.2889 1.008 0.08773
1254 66 1 13.6475 27.3224 44.0267 1.008 0.08773
1255 67 4 32.4217 43.2794 12.3598 15.999 -0.35515
1256 67 2 32.748 42.917 13.6866 12.011 0.03297
1257 67 2 31.8858 44.5914 12.2634 12.011 0.01762
1258 67 2 30.5387 44.7016 12.9886 12.011 -0.23743
1259 67 2 29.8587 46.0503 12.7967 12.011 -0.24423
1260 67 3 33.4236 41.574 13.6368 12.011 -0.1837
1261 67 3 32.8819 40.4581 14.1305 12.011 -0.23415
1262 67 1 31.9275 40.4922 14.6273 1.008 0.12909
1263 67 1 33.3853 39.5067 14.0773 1.008 0.12909
1264 67 1 34.4005 41.5423 13.1763 1.008 0.15086
1265 67 1 31.8599 42.7999 14.2988 1.008 0.07222
1266 67 1 33.3951 43.655 14.1624 1.008 0.07222
1267 67 1 32.6002 45.3227 12.6574 1.008 0.09202
1268 67 1 31.7406 44.8163 11.2042 1.008 0.09202
1269 67 1 30.6702 44.5705 14.0594 1.008 0.10167
1270 67 1 29.8719 43.9083 12.6472 1.008 0.10167
1271 67 1 29.1469 46.2368 13.5999 1.008 0.08773
1272 67 1 30.5965 46.8497 12.8003 1.008 0.08773
1273 67 1 29.3258 46.0998 11.8482 1.008 0.08773
1274 68 4 14.2562 8.43597 4.89899 15.999 -0.35515
1275 68 2 13.3898 9.50996 5.19413 12.011 0.03297
1276 68 2 15.6388 8.73614 5.10394 12.011 0.01762
1277 68 2 16.1279 9.9293 4.24644 12.011 -0.23743
1278 68 2 17.6246 10.2412 4.33487 12.011 -0.24423
1279 68 3 11.95 9.08174 5.05124 12.011 -0.1837
1280 68 3 11.108 9.62392 4.17106 12.011 -0.23415
1281 68 1 11.4193 10.4218 3.5101 1.008 0.12909
1282 68 1 10.1021 9.2464 4.05146 1.008 0.12909
1283 68 1 11.6228 8.25346 5.66045 1.008 0.15086
1284 68 1 13.5397 10.3012 4.46521 1.008 0.07222
1285 68 1 13.5809 9.89543 6.19437 1.008 0.07222
1286 68 1 15.8363 8.9356 6.16377 1.008 0.09202
1287 68 1 16.1926 7.83912 4.8157 1.008 0.09202
1288 68 1 15.6194 10.8436 4.53327 1.008 0.10167
1289 68 1 15.8564 9.76739 3.20239 1.008 0.10167
1290 68 1 17.8145 11.2756 4.05365 1.008 0.08773
1291 68 1 17.9999 10.0722 5.34426 1.008 0.08773
1292 68 1 18.1898 9.62993 3.63688 1.008 0.08773
1293 69 4 7.2969 44.4563 29.0977 15.999 -0.35515
1294 69 2 6.78726 43.681 28.0325 12.011 0.03297
1295 69 2 6.276 44.8683 29.9993 12.011 0.01762
1296 69 2 5.29348 45.8398 29.3222 12.011 -0.23743
1297 69 2 4.26331 46.4081 30.2921 12.011 -0.24423
1298 69 3 7.94168 43.1799 27.2085 12.011 -0.1837
1299 69 3 8.15724 43.5361 25.9444 12.011 -0.23415
1300 69 1 7.49469 44.2151 25.4285 1.008 0.12909
1301 69 1 9.01712 43.1551 25.4094 1.008 0.12909
1302 69 1 8.63615 42.5019 27.6701 1.008 0.15086
1303 69 1 6.17222 44.2882 27.3729 1.008 0.07222
1304 69 1 6.17663 42.8557 28.4026 1.008 0.07222
1305 69 1 5.75505 43.9906 30.4009 1.008 0.09202
1306 69 1 6.75249 45.3717 30.8465 1.008 0.09202
1307 69 1 4.73178 45.3489 28.5306 1.008 0.10167
1308 69 1 5.84764 46.6584 28.857 1.008 0.10167
1309 69 1 3.37388 46.7446 29.7618 1.008 0.08773
1310 69 1 3.95457 45.6516 31.0138 1.008 0.08773
1311 69 1 4.66534 47.2511 30.8537 1.008 0.08773
1312 70 4 29.3294 36.0184 39.408 15.999 -0.35515
1313 70 2 29.0566 36.5151 38.115 12.011 0.03297
1314 70 2 30.4318 35.121 39.4296 12.011 0.01762
1315 70 2 30.1032 33.8276 38.6632 12.011 -0.23743
1316 70 2 31.2137 32.7888 38.762 12.011 -0.24423
1317 70 3 27.9778 37.5576 38.2277 12.011 -0.1837
1318 70 3 26.7604 37.4108 37.7009 12.011 -0.23415
1319 70 1 26.4989 36.5145 37.1637 1.008 0.12909
1320 70 1 26.0015 38.173 37.8064 1.008 0.12909
1321 70 1 28.2167 38.4546 38.7767 1.008 0.15086
1322 70 1 28.6743 35.7246 37.4738 1.008 0.07222
1323 70 1 29.9564 36.9248 37.6511 1.008 0.07222
1324 70 1 31.328 35.6034 39.0204 1.008 0.09202
1325 70 1 30.6442 34.8885 40.4775 1.008 0.09202
1326 70 1 29.9664 34.0293 37.6025 1.008 0.10167
1327 70 1 29.1643 33.4062 39.0331 1.008 0.10167
1328 70 1 31.1641 32.0889 37.9306 1.008 0.08773
1329 70 1 32.1897 33.2752 38.7391 1.008 0.08773
1330 70 1 31.1422 32.219 39.6866 1.008 0.08773
1331 71 4 31.6482 37.0398 20.3185 15.999 -0.35515
1332 71 2 32.8247 36.3341 20.6452 12.011 0.03297
1333 71 2 30.7227 36.2169 19.6235 12.011 0.01762
1334 71 2 31.2744 35.8235 18.2403 12.011 -0.23743
1335 71 2 30.2681 35.028 17.4208 12.011 -0.24423
1336 71 3 33.6521 37.2143 21.5271 12.011 -0.1837
1337 71 3 34.8511 37.6729 21.1704 12.011 -0.23415
1338 71 1 35.3033 37.4428 20.2135 1.008 0.12909
1339 71 1 35.4117 38.2982 21.8454 1.008 0.12909
1340 71 1 33.2491 37.4809 22.4879 1.008 0.15086
1341 71 1 33.4173 36.121 19.7559 1.008 0.07222
1342 71 1 32.5985 35.3906 21.1474 1.008 0.07222
1343 71 1 30.4742 35.3312 20.2173 1.008 0.09202
1344 71 1 29.7889 36.7729 19.5208 1.008 0.09202
1345 71 1 32.1568 35.1946 18.3302 1.008 0.10167
1346 71 1 31.5817 36.7166 17.6901 1.008 0.10167
1347 71 1 30.7646 34.444 16.6485 1.008 0.08773
1348 71 1 29.7093 34.3454 18.0635 1.008 0.08773
1349 71 1 29.549 35.6855 16.9361 1.008 0.08773
1350 72 4 23.3677 25.2796 30.975 15.999 -0.35515
1351 72 2 23.9863 25.5197 32.2212 12.011 0.03297
1352 72 2 23.0344 26.4797 30.2851 12.011 0.01762
1353 72 2 21.9535 27.2626 31.0371 12.011 -0.23743
1354 72 2 21.4912 28.4853 30.2619 12.011 -0.24423
1355 72 3 24.4134 24.1991 32.8018 12.011 -0.1837
1356 72 3 23.9062 23.6879 33.9254 12.011 -0.23415
1357 72 1 23.1493 24.2119 34.4909 1.008 0.12909
1358 72 1 24.2317 22.7255 34.2994 1.008 0.12909
1359 72 1 25.1645 23.6432 32.267 1.008 0.15086
1360 72 1 23.2818 25.9597 32.9227 1.008 0.07222
1361 72 1 24.8345 26.1984 32.1148 1.008 0.07222
1362 72 1 23.9282 27.0965 30.1242 1.008 0.09202
1363 72 1 22.6432 26.2133 29.2973 1.008 0.09202
1364 72 1 22.3157 27.6206 31.998 1.008 0.10167
1365 72 1 21.1008 26.6096 31.2404 1.008 0.10167
1366 72 1 21.0399 29.1954 30.9456 1.008 0.08773
1367 72 1 22.3298 28.9771 29.7654 1.008 0.08773
1368 72 1 20.7516 28.2216 29.5055 1.008 0.08773
1369 73 4 14.9798 44.2393 13.988 15.999 -0.35515
1370 73 2 15.0629 45.6529 13.9529 12.011 0.03297
1371 73 2 15.274 43.702 15.2668 12.011 0.01762
1372 73 2 16.7167 44.04 15.6412 12.011 -0.23743
1373 73 2 17.16 43.3547 16.9223 12.011 -0.24423
1374 73 3 14.554 46.0911 12.6175 12.011 -0.1837
1375 73 3 15.2416 46.8681 11.7793 12.011 -0.23415
1376 73 1 16.2257 47.2334 12.0413 1.008 0.12909
1377 73 1 14.8161 47.1791 10.8316 1.008 0.12909
1378 73 1 13.5606 45.7704 12.366 1.008 0.15086
1379 73 1 16.0808 46.022 14.0425 1.008 0.07222
1380 73 1 14.4935 46.1167 14.7572 1.008 0.07222
1381 73 1 14.5867 44.0754 16.0297 1.008 0.09202
1382 73 1 15.134 42.6194 15.2158 1.008 0.09202
1383 73 1 16.8241 45.1087 15.8135 1.008 0.10167
1384 73 1 17.3772 43.7701 14.8121 1.008 0.10167
1385 73 1 18.0185 43.8697 17.3487 1.008 0.08773
1386 73 1 16.3519 43.3679 17.6564 1.008 0.08773
1387 73 1 17.4362 42.3169 16.7322 1.008 0.08773
1388 74 4 45.9286 36.6612 30.6211 15.999 -0.35515
1389 74 2 46.7049 36.0346 31.6225 12.011 0.03297
1390 74 2 44.9909 37.5923 31.1502 12.011 0.01762
1391 74 2 43.9313 36.8969 32.0148 12.011 -0.23743
1392 74 2 42.8552 37.8375 32.5417 12.011 -0.24423
1393 74 3 47.7331 35.1659 30.9525 12.011 -0.1837
1394 74 3 47.7482 33.8342 31.0503 12.011 -0.23415
1395 74 1 47.0109 33.3043 31.6351 1.008 0.12909
1396 74 1 48.4988 33.2446 30.5418 1.008 0.12909
1397 74 1 48.4841 35.6644 30.3624 1.008 0.15086
1398 74 1 46.091 35.3742 32.2262 1.008 0.07222
1399 74 1 47.1703 36.7639 32.2892 1.008 0.07222
1400 74 1 45.5028 38.3732 31.7291 1.008 0.09202
1401 74 1 44.4971 38.068 30.2987 1.008 0.09202
1402 74 1 44.3989 36.466 32.8914 1.008 0.10167
1403 74 1 43.46 36.0826 31.4587 1.008 0.10167
1404 74 1 42.3427 37.4103 33.3981 1.008 0.08773
1405 74 1 43.2775 38.7942 32.8511 1.008 0.08773
1406 74 1 42.1008 38.0205 31.7806 1.008 0.08773
1407 75 4 31.5856 35.0573 25.69 15.999 -0.35515
1408 75 2 32.9195 35.4111 25.4083 12.011 0.03297
1409 75 2 30.6801 36.0734 25.3088 12.011 0.01762
1410 75 2 30.8597 37.2901 26.2191 12.011 -0.23743
1411 75 2 29.8179 38.3398 25.9046 12.011 -0.24423
1412 75 3 33.7921 34.2117 25.6595 12.011 -0.1837
1413 75 3 34.7177 34.1505 26.6193 12.011 -0.23415
1414 75 1 34.9053 34.9901 27.269 1.008 0.12909
1415 75 1 35.2923 33.2509 26.7922 1.008 0.12909
1416 75 1 33.6308 33.3513 25.0336 1.008 0.15086
1417 75 1 33.2318 36.1885 26.0957 1.008 0.07222
1418 75 1 33.0302 35.7787 24.3854 1.008 0.07222
1419 75 1 30.8118 36.3486 24.2549 1.008 0.09202
1420 75 1 29.6641 35.6816 25.4065 1.008 0.09202
1421 75 1 31.8251 37.7697 26.0698 1.008 0.10167
1422 75 1 30.8074 37.006 27.2753 1.008 0.10167
1423 75 1 30.1868 39.3159 26.2111 1.008 0.08773
1424 75 1 29.6076 38.3852 24.8356 1.008 0.08773
1425 75 1 28.8823 38.127 26.4241 1.008 0.08773
1426 76 4 15.6629 16.6546 11.5107 15.999 -0.35515
1427 76 2 16.311 16.5154 10.2777 12.011 0.03297
1428 76 2 14.2714 16.3602 11.3442 12.011 0.01762
1429 76 2 13.5662 17.4829 10.5915 12.011 -0.23743
1430 76 2 12.0582 17.3671 10.7383 12.011 -0.24423
1431 76 3 17.8108 16.5956 10.4128 12.011 -0.1837
1432 76 3 18.5502 17.5655 9.86903 12.011 -0.23415
1433 76 1 18.0973 18.3731 9.30962 1.008 0.12909
1434 76 1 19.6332 17.5619 9.9304 1.008 0.12909
1435 76 1 18.3031 15.7829 10.92 1.008 0.15086
1436 76 1 15.9878 17.3256 9.63718 1.008 0.07222
1437 76 1 16.0221 15.5798 9.7954 1.008 0.07222
1438 76 1 14.1184 15.3727 10.8642 1.008 0.09202
1439 76 1 13.7827 16.2563 12.3142 1.008 0.09202
1440 76 1 13.8208 17.4132 9.54349 1.008 0.10167
1441 76 1 13.91 18.4384 10.9741 1.008 0.10167
1442 76 1 11.54 17.8633 9.91709 1.008 0.08773
1443 76 1 11.7454 16.3147 10.7529 1.008 0.08773
1444 76 1 11.7195 17.8124 11.6786 1.008 0.08773
1445 77 4 16.5417 48.8011 20.851 15.999 -0.35515
1446 77 2 16.2309 48.5365 22.203 12.011 0.03297
1447 77 2 17.9408 48.9057 20.6223 12.011 0.01762
1448 77 2 18.5257 50.1367 21.3342 12.011 -0.23743
1449 77 2 19.998 50.3571 21.006 12.011 -0.24423
1450 77 3 14.7455 48.3281 22.3051 12.011 -0.1837
1451 77 3 13.9352 49.1117 23.0191 12.011 -0.23415
1452 77 1 14.3152 49.9577 23.5717 1.008 0.12909
1453 77 1 12.8711 48.9237 23.0563 1.008 0.12909
1454 77 1 14.3294 47.4975 21.7593 1.008 0.15086
1455 77 1 16.4758 49.3873 22.8338 1.008 0.07222
1456 77 1 16.7799 47.6677 22.5744 1.008 0.07222
1457 77 1 18.4519 47.987 20.9367 1.008 0.09202
1458 77 1 18.0932 49.0056 19.5438 1.008 0.09202
1459 77 1 18.4601 50.0368 22.416 1.008 0.10167
1460 77 1 17.9486 51.026 21.0673 1.008 0.10167
1461 77 1 20.477 50.9651 21.7708 1.008 0.08773
1462 77 1 20.5261 49.4036 20.9516 1.008 0.08773
1463 77 1 20.1141 50.8617 20.047 1.008 0.08773
1464 78 4 5.37891 19.5277 2.66626 15.999 -0.35515
1465 78 2 6.43527 19.5309 3.60682 12.011 0.03297
1466 78 2 4.15316 20.0102 3.20439 12.011 0.01762
1467 78 2 3.61478 19.0816 4.30521 12.011 -0.23743
1468 78 2 2.25592 19.5228 4.8366 12.011 -0.24423
1469 78 3 7.69556 19.0959 2.91135 12.011 -0.1837
1470 78 3 8.35662 17.9766 3.21623 12.011 -0.23415
1471 78 1 8.02227 17.3174 4.00387 1.008 0.12909
1472 78 1 9.2588 17.703 2.68753 1.008 0.12909
1473 78 1 8.06995 19.7375 2.13036 1.008 0.15086
1474 78 1 6.25253 18.8066 4.39586 1.008 0.07222
1475 78 1 6.55754 20.5142 4.0665 1.008 0.07222
1476 78 1 4.27824 21.0318 3.58292 1.008 0.09202
1477 78 1 3.42435 20.0536 2.3895 1.008 0.09202
1478 78 1 4.28097 19.0679 5.1604 1.008 0.10167
1479 78 1 3.56214 18.0512 3.94216 1.008 0.10167
1480 78 1 2.08265 19.1223 5.8343 1.008 0.08773
1481 78 1 2.20102 20.6105 4.89786 1.008 0.08773
1482 78 1 1.45045 19.1772 4.18875 1.008 0.08773
1483 79 4 39.4753 8.67923 35.7141 15.999 -0.35515
1484 79 2 39.6857 10.0493 35.43 12.011 0.03297
1485 79 2 39.9688 8.2911 36.9938 12.011 0.01762
1486 79 2 41.4946 8.46259 37.1046 12.011 -0.23743
1487 79 2 42.0437 7.97331 38.44 12.011 -0.24423
1488 79 3 39.0415 10.3933 34.1156 12.011 -0.1837
1489 79 3 39.7194 10.794 33.0365 12.011 -0.23415
1490 79 1 40.7936 10.8995 33.0481 1.008 0.12909
1491 79 1 39.2213 10.9703 32.0923 1.008 0.12909
1492 79 1 37.9749 10.2639 34.048 1.008 0.15086
1493 79 1 40.7459 10.2558 35.319 1.008 0.07222
1494 79 1 39.2949 10.6781 36.2279 1.008 0.07222
1495 79 1 39.4678 8.86142 37.782 1.008 0.09202
1496 79 1 39.7122 7.2385 37.1486 1.008 0.09202
1497 79 1 41.7828 9.50655 37.0103 1.008 0.10167
1498 79 1 41.997 7.92652 36.2979 1.008 0.10167
1499 79 1 43.0165 8.41647 38.6465 1.008 0.08773
1500 79 1 41.3756 8.2429 39.2606 1.008 0.08773
1501 79 1 42.1584 6.88914 38.442 1.008 0.08773
1502 80 4 14.5489 14.2907 3.87385 15.999 -0.35515
1503 80 2 14.9424 13.157 3.14416 12.011 0.03297
1504 80 2 14.7061 14.1733 5.27525 12.011 0.01762
1505 80 2 13.8729 13.0546 5.91483 12.011 -0.23743
1506 80 2 14.0504 12.9921 7.43276 12.011 -0.24423
1507 80 3 14.6872 13.4469 1.68545 12.011 -0.1837
1508 80 3 13.819 12.7536 0.94129 12.011 -0.23415
1509 80 1 13.2939 11.9136 1.36338 1.008 0.12909
1510 80 1 13.6434 12.9906 51.8889 1.008 0.12909
1511 80 1 15.231 14.2687 1.23724 1.008 0.15086
1512 80 1 14.3137 12.3108 3.40102 1.008 0.07222
1513 80 1 15.9907 12.9122 3.33187 1.008 0.07222
1514 80 1 15.7685 14.0272 5.49233 1.008 0.09202
1515 80 1 14.399 15.1295 5.70819 1.008 0.09202
1516 80 1 14.2114 12.0994 5.54295 1.008 0.10167
1517 80 1 12.8171 13.1511 5.64342 1.008 0.10167
1518 80 1 13.8412 11.9914 7.80793 1.008 0.08773
1519 80 1 15.0735 13.2521 7.71539 1.008 0.08773
1520 80 1 13.3821 13.6802 7.94759 1.008 0.08773
1521 81 4 48.0715 28.2947 48.4175 15.999 -0.35515
1522 81 2 47.5533 28.6035 47.1385 12.011 0.03297
1523 81 2 49.0371 27.2524 48.3719 12.011 0.01762
1524 81 2 48.38 25.925 47.9664 12.011 -0.23743
1525 81 2 49.3459 24.7537 48.0296 12.011 -0.24423
1526 81 3 46.6667 29.8105 47.2625 12.011 -0.1837
1527 81 3 45.3569 29.7809 47.02 12.011 -0.23415
1528 81 1 44.8748 28.8725 46.7061 1.008 0.12909
1529 81 1 44.7406 30.6639 47.1239 1.008 0.12909
1530 81 1 47.1224 30.7381 47.5641 1.008 0.15086
1531 81 1 46.9311 27.7922 46.7664 1.008 0.07222
1532 81 1 48.3521 28.7799 46.4145 1.008 0.07222
1533 81 1 49.855 27.5145 47.6892 1.008 0.09202
1534 81 1 49.4703 27.1501 49.3718 1.008 0.09202
1535 81 1 48.0014 25.9596 46.9467 1.008 0.10167
1536 81 1 47.5285 25.7321 48.618 1.008 0.10167
1537 81 1 49.0069 23.9268 47.4078 1.008 0.08773
1538 81 1 50.3167 25.0749 47.6587 1.008 0.08773
1539 81 1 49.4664 24.3898 49.0507 1.008 0.08773
1540 82 4 14.8477 27.3537 23.5524 15.999 -0.35515
1541 82 2 14.6044 26.2711 24.4278 12.011 0.03297
1542 82 2 14.6943 28.6191 24.1854 12.011 0.01762
1543 82 2 13.2357 28.8606 24.6065 12.011 -0.23743
1544 82 2 13.0187 30.2545 25.1843 12.011 -0.24423
1545 82 3 14.907 24.9891 23.6994 12.011 -0.1837
1546 82 3 13.9833 24.0694 23.4095 12.011 -0.23415
1547 82 1 12.9498 24.1975 23.6949 1.008 0.12909
1548 82 1 14.2423 23.1679 22.8717 1.008 0.12909
1549 82 1 15.9281 24.8237 23.3954 1.008 0.15086
1550 82 1 13.5559 26.2323 24.7115 1.008 0.07222
1551 82 1 15.2015 26.358 25.3378 1.008 0.07222
1552 82 1 15.3688 28.6991 25.0471 1.008 0.09202
1553 82 1 14.993 29.3911 23.4688 1.008 0.09202
1554 82 1 12.9262 28.1557 25.3749 1.008 0.10167
1555 82 1 12.5727 28.7054 23.7512 1.008 0.10167
1556 82 1 12.1261 30.2786 25.8071 1.008 0.08773
1557 82 1 13.8673 30.5518 25.8033 1.008 0.08773
1558 82 1 12.9013 30.996 24.3943 1.008 0.08773
1559 83 4 10.758 41.3647 35.4696 15.999 -0.35515
1560 83 2 10.221 41.0885 36.7564 12.011 0.03297
1561 83 2 11.9052 40.5846 35.1531 12.011 0.01762
1562 83 2 13.073 41.1537 35.9523 12.011 -0.23743
1563 83 2 14.3934 40.4861 35.6068 12.011 -0.24423
1564 83 3 8.85952 41.7315 36.8942 12.011 -0.1837
1565 83 3 8.59429 42.8346 37.5977 12.011 -0.23415
1566 83 1 9.37015 43.3624 38.1373 1.008 0.12909
1567 83 1 7.58785 43.2485 37.6188 1.008 0.12909
1568 83 1 8.04162 41.272 36.3744 1.008 0.15086
1569 83 1 10.8633 41.5231 37.5247 1.008 0.07222
1570 83 1 10.1421 40.0072 36.925 1.008 0.07222
1571 83 1 11.7389 39.5137 35.3671 1.008 0.09202
1572 83 1 12.1023 40.6737 34.0727 1.008 0.09202
1573 83 1 12.8932 41.0109 37.0113 1.008 0.10167
1574 83 1 13.1285 42.2255 35.77 1.008 0.10167
1575 83 1 15.1086 40.6243 36.4162 1.008 0.08773
1576 83 1 14.2576 39.4093 35.4603 1.008 0.08773
1577 83 1 14.8243 40.9054 34.6926 1.008 0.08773
1578 84 4 13.5801 31.5773 39.7865 15.999 -0.35515
1579 84 2 14.244 32.5631 39.0242 12.011 0.03297
1580 84 2 12.165 31.6938 39.6918 12.011 0.01762
1581 84 2 11.6487 33.0032 40.3225 12.011 -0.23743
1582 84 2 10.1276 33.1094 40.3508 12.011 -0.24423
1583 84 3 15.7223 32.2859 39.0159 12.011 -0.1837
1584 84 3 16.6343 33.1072 39.539 12.011 -0.23415
1585 84 1 16.3476 34.0333 40.0066 1.008 0.12909
1586 84 1 17.6775 32.8304 39.5747 1.008 0.12909
1587 84 1 16.0284 31.3408 38.5953 1.008 0.15086
1588 84 1 14.1096 33.5396 39.4752 1.008 0.07222
1589 84 1 13.8637 32.5935 38.0029 1.008 0.07222
1590 84 1 11.8572 31.6162 38.6407 1.008 0.09202
1591 84 1 11.7333 30.8482 40.2327 1.008 0.09202
1592 84 1 12.0195 33.876 39.7863 1.008 0.10167
1593 84 1 12.0061 33.0951 41.3487 1.008 0.10167
1594 84 1 9.82213 34.1471 40.4748 1.008 0.08773
1595 84 1 9.6902 32.7492 39.421 1.008 0.08773
1596 84 1 9.70965 32.5294 41.1749 1.008 0.08773
1597 85 4 9.50353 28.1707 6.40329 15.999 -0.35515
1598 85 2 8.36072 28.3916 7.20576 12.011 0.03297
1599 85 2 9.26398 27.2358 5.35844 12.011 0.01762
1600 85 2 8.98839 25.8413 5.93663 12.011 -0.23743
1601 85 2 8.85432 24.7681 4.867 12.011 -0.24423
1602 85 3 8.64831 29.5155 8.16176 12.011 -0.1837
1603 85 3 8.67468 29.3584 9.4873 12.011 -0.23415
1604 85 1 8.47917 28.3989 9.94096 1.008 0.12909
1605 85 1 8.90321 30.186 10.1442 1.008 0.12909
1606 85 1 8.8467 30.4875 7.73826 1.008 0.15086
1607 85 1 8.12764 27.5167 7.80558 1.008 0.07222
1608 85 1 7.48629 28.6125 6.59679 1.008 0.07222
1609 85 1 8.43945 27.5715 4.71754 1.008 0.09202
1610 85 1 10.1624 27.1914 4.73566 1.008 0.09202
1611 85 1 8.07134 25.8203 6.52304 1.008 0.10167
1612 85 1 9.80602 25.5732 6.60782 1.008 0.10167
1613 85 1 8.30978 23.9057 5.24871 1.008 0.08773
1614 85 1 8.32135 25.1488 3.99466 1.008 0.08773
1615 85 1 9.83929 24.432 4.54714 1.008 0.08773
1616 86 4 46.7293 43.9373 38.032 15.999 -0.35515
1617 86 2 48.1083 44.2161 37.9576 12.011 0.03297
1618 86 2 45.9276 45.0977 38.2006 12.011 0.01762
1619 86 2 46.158 45.686 39.5924 12.011 -0.23743
1620 86 2 45.1919 46.8245 39.8879 12.011 -0.24423
1621 86 3 48.8313 42.9449 37.6059 12.011 -0.1837
1622 86 3 49.6956 42.3312 38.4197 12.011 -0.23415
1623 86 1 49.9251 42.7387 39.3947 1.008 0.12909
1624 86 1 50.1912 41.4133 38.1248 1.008 0.12909
1625 86 1 48.6207 42.5267 36.6353 1.008 0.15086
1626 86 1 48.4866 44.5568 38.9187 1.008 0.07222
1627 86 1 48.3071 44.9811 37.2095 1.008 0.07222
1628 86 1 46.1101 45.828 37.4028 1.008 0.09202
1629 86 1 44.8741 44.8171 38.1248 1.008 0.09202
1630 86 1 47.1687 46.0772 39.682 1.008 0.10167
1631 86 1 46.0482 44.8972 40.3418 1.008 0.10167
1632 86 1 45.6046 47.4931 40.6416 1.008 0.08773
1633 86 1 45.0043 47.4053 38.9801 1.008 0.08773
1634 86 1 44.2353 46.44 40.2477 1.008 0.08773
1635 87 4 19.6994 32.5132 4.97686 15.999 -0.35515
1636 87 2 18.5619 32.3002 4.16423 12.011 0.03297
1637 87 2 20.6528 33.3753 4.3674 12.011 0.01762
1638 87 2 21.2656 32.7274 3.11544 12.011 -0.23743
1639 87 2 22.3785 33.5749 2.50928 12.011 -0.24423
1640 87 3 17.5562 31.4908 4.93756 12.011 -0.1837
1641 87 3 17.1704 30.2631 4.58586 12.011 -0.23415
1642 87 1 17.5674 29.7785 3.70613 1.008 0.12909
1643 87 1 16.4624 29.705 5.18369 1.008 0.12909
1644 87 1 17.1457 31.9404 5.82733 1.008 0.15086
1645 87 1 18.8218 31.7197 3.28272 1.008 0.07222
1646 87 1 18.1306 33.2479 3.83574 1.008 0.07222
1647 87 1 20.1942 34.3419 4.12376 1.008 0.09202
1648 87 1 21.4458 33.5682 5.09679 1.008 0.09202
1649 87 1 20.5196 32.5906 2.33548 1.008 0.10167
1650 87 1 21.6504 31.7342 3.36256 1.008 0.10167
1651 87 1 22.5321 33.3201 1.46249 1.008 0.08773
1652 87 1 22.13 34.6358 2.56432 1.008 0.08773
1653 87 1 23.3198 33.4205 3.03672 1.008 0.08773
1654 88 4 25.3367 12.9643 48.3863 15.999 -0.35515
1655 88 2 25.1169 12.8295 49.7766 12.011 0.03297
1656 88 2 26.7088 13.156 48.0635 12.011 0.01762
1657 88 2 27.2188 14.5033 48.5977 12.011 -0.23743
1658 88 2 28.6498 14.7966 48.1631 12.011 -0.24423
1659 88 3 23.6656 12.5038 50.0029 12.011 -0.1837
1660 88 3 22.817 13.314 50.6408 12.011 -0.23415
1661 88 1 23.1399 14.2641 51.0382 1.008 0.12909
1662 88 1 21.7786 13.0422 50.7735 1.008 0.12909
1663 88 1 23.3128 11.5602 49.6198 1.008 0.15086
1664 88 1 25.3161 13.7657 50.2919 1.008 0.07222
1665 88 1 25.7621 12.0591 50.2049 1.008 0.07222
1666 88 1 27.3138 12.3256 48.4497 1.008 0.09202
1667 88 1 26.8042 13.1433 46.9731 1.008 0.09202
1668 88 1 27.2174 14.521 49.6852 1.008 0.10167
1669 88 1 26.5592 15.3104 48.2695 1.008 0.10167
1670 88 1 29.1151 15.5184 48.8322 1.008 0.08773
1671 88 1 29.2527 13.8867 48.1823 1.008 0.08773
1672 88 1 28.6802 15.2027 47.152 1.008 0.08773
1673 89 4 12.1269 14.7672 2.78693 15.999 -0.35515
1674 89 2 11.7516 16.0942 3.07132 12.011 0.03297
1675 89 2 11.0687 13.9602 2.3139 12.011 0.01762
1676 89 2 10.0245 13.7538 3.39952 12.011 -0.23743
1677 89 2 8.93268 12.8156 2.91367 12.011 -0.24423
1678 89 3 13.012 16.8239 3.42772 12.011 -0.1837
1679 89 3 13.2351 17.3466 4.63342 12.011 -0.23415
1680 89 1 12.4997 17.3158 5.42679 1.008 0.12909
1681 89 1 14.1992 17.7751 4.86506 1.008 0.12909
1682 89 1 13.8031 16.8557 2.69834 1.008 0.15086
1683 89 1 11.0978 16.1383 3.94134 1.008 0.07222
1684 89 1 11.2558 16.5535 2.21704 1.008 0.07222
1685 89 1 10.6453 14.3819 1.3942 1.008 0.09202
1686 89 1 11.4713 12.9744 2.07243 1.008 0.09202
1687 89 1 9.55681 14.6924 3.68703 1.008 0.10167
1688 89 1 10.5144 13.342 4.28547 1.008 0.10167
1689 89 1 7.99776 13.0185 3.42998 1.008 0.08773
1690 89 1 8.75561 12.9551 1.84386 1.008 0.08773
1691 89 1 9.21057 11.7731 3.08017 1.008 0.08773
1692 90 4 22.7364 27.2483 20.5845 15.999 -0.35515
1693 90 2 21.4538 27.8284 20.7063 12.011 0.03297
1694 90 2 23.5947 28.009 19.7461 12.011 0.01762
1695 90 2 23.1017 27.9881 18.2897 12.011 -0.23743
1696 90 2 24.0473 28.7103 17.3351 12.011 -0.24423
1697 90 3 20.6626 27.0559 21.7236 12.011 -0.1837
1698 90 3 19.5477 26.3857 21.4301 12.011 -0.23415
1699 90 1 19.1516 26.3585 20.4261 1.008 0.12909
1700 90 1 19.0106 25.8386 22.1925 1.008 0.12909
1701 90 1 21.0279 27.0535 22.7377 1.008 0.15086
1702 90 1 20.909 27.7611 19.7684 1.008 0.07222
1703 90 1 21.5202 28.8808 20.9882 1.008 0.07222
1704 90 1 23.6811 29.0374 20.1201 1.008 0.09202
1705 90 1 24.5907 27.5613 19.8046 1.008 0.09202
1706 90 1 22.1403 28.4884 18.1941 1.008 0.10167
1707 90 1 22.9499 26.9561 17.9626 1.008 0.10167
1708 90 1 23.5201 29.0258 16.4369 1.008 0.08773
1709 90 1 24.4753 29.5967 17.8064 1.008 0.08773
1710 90 1 24.8676 28.0698 17.021 1.008 0.08773
1711 91 4 9.65738 19.5571 48.8878 15.999 -0.35515
1712 91 2 9.17596 19.8895 50.1751 12.011 0.03297
1713 91 2 10.4399 18.37 48.8882 12.011 0.01762
1714 91 2 11.7449 18.5703 49.6749 12.011 -0.23743
1715 91 2 12.6715 17.3642 49.5923 12.011 -0.24423
1716 91 3 8.272 21.0836 50.0444 12.011 -0.1837
1717 91 3 8.54113 22.2704 50.5938 12.011 -0.23415
1718 91 1 9.43402 22.4273 51.1781 1.008 0.12909
1719 91 1 7.88227 23.1157 50.4611 1.008 0.12909
1720 91 1 7.37554 20.9549 49.461 1.008 0.15086
1721 91 1 9.99314 20.1854 50.8287 1.008 0.07222
1722 91 1 8.65717 19.0458 50.6368 1.008 0.07222
1723 91 1 9.8622 17.5299 49.2929 1.008 0.09202
1724 91 1 10.68 18.1283 47.8486 1.008 0.09202
1725 91 1 11.5489 18.7395 50.7322 1.008 0.10167
1726 91 1 12.2623 19.4604 49.3094 1.008 0.10167
1727 91 1 13.3723 17.3579 50.4255 1.008 0.08773
1728 91 1 12.0986 16.4369 49.6313 1.008 0.08773
1729 91 1 13.2439 17.3693 48.665 1.008 0.08773
1730 92 4 26.3902 31.3327 29.6266 15.999 -0.35515
1731 92 2 25.6225 31.4255 28.4404 12.011 0.03297
1732 92 2 26.1268 32.4052 30.5241 12.011 0.01762
1733 92 2 26.6222 33.7173 29.9114 12.011 -0.23743
1734 92 2 26.5118 34.8938 30.8437 12.011 -0.24423
1735 92 3 25.8617 30.1836 27.6263 12.011 -0.1837
1736 92 3 26.444 30.1868 26.4271 12.011 -0.23415
1737 92 1 26.7626 31.1072 25.9606 1.008 0.12909
1738 92 1 26.6233 29.2666 25.8864 1.008 0.12909
1739 92 1 25.547 29.2482 28.0593 1.008 0.15086
1740 92 1 25.939 32.2629 27.8254 1.008 0.07222
1741 92 1 24.561 31.5615 28.6584 1.008 0.07222
1742 92 1 25.0559 32.4665 30.7606 1.008 0.09202
1743 92 1 26.6596 32.2199 31.462 1.008 0.09202
1744 92 1 26.0273 33.9881 29.0435 1.008 0.10167
1745 92 1 27.661 33.6231 29.5963 1.008 0.10167
1746 92 1 26.5449 35.8264 30.2859 1.008 0.08773
1747 92 1 25.5602 34.827 31.3688 1.008 0.08773
1748 92 1 27.331 34.9091 31.5601 1.008 0.08773
1749 93 4 43.3961 21.5429 50.4849 15.999 -0.35515
1750 93 2 43.443 20.2397 49.9433 12.011 0.03297
1751 93 2 42.1926 21.8591 51.1736 12.011 0.01762
1752 93 2 40.9702 21.848 50.2388 12.011 -0.23743
1753 93 2 39.6916 22.2536 50.9654 12.011 -0.24423
1754 93 3 44.8021 20.0401 49.3153 12.011 -0.1837
1755 93 3 44.9915 19.8442 48.0061 12.011 -0.23415
1756 93 1 44.1548 19.8242 47.3287 1.008 0.12909
1757 93 1 45.981 19.7381 47.5797 1.008 0.12909
1758 93 1 45.6617 20.0923 49.9641 1.008 0.15086
1759 93 1 42.7019 20.13 49.1545 1.008 0.07222
1760 93 1 43.2489 19.4888 50.709 1.008 0.07222
1761 93 1 42.0512 21.1712 52.0164 1.008 0.09202
1762 93 1 42.312 22.8665 51.5908 1.008 0.09202
1763 93 1 40.7978 20.8553 49.8291 1.008 0.10167
1764 93 1 41.1362 22.5164 49.3895 1.008 0.10167
1765 93 1 38.8137 21.8773 50.4426 1.008 0.08773
1766 93 1 39.681 21.8451 -0.00714662 1.008 0.08773
1767 93 1 39.607 23.339 51.0396 1.008 0.08773
1768 94 4 44.4417 12.4607 24.9045 15.999 -0.35515
1769 94 2 45.4065 12.2432 23.897 12.011 0.03297
1770 94 2 43.15 11.9929 24.5423 12.011 0.01762
1771 94 2 42.5762 12.915 23.465 12.011 -0.23743
1772 94 2 41.1305 12.588 23.1271 12.011 -0.24423
1773 94 3 46.7636 12.5289 24.4863 12.011 -0.1837
1774 94 3 47.5349 13.5497 24.1038 12.011 -0.23415
1775 94 1 47.2197 14.2328 23.3263 1.008 0.12909
1776 94 1 48.4974 13.7311 24.5652 1.008 0.12909
1777 94 1 47.1121 11.8693 25.2634 1.008 0.15086
1778 94 1 45.2464 12.9407 23.0835 1.008 0.07222
1779 94 1 45.3569 11.2294 23.4874 1.008 0.07222
1780 94 1 43.1796 10.9425 24.2149 1.008 0.09202
1781 94 1 42.508 12.0285 25.4289 1.008 0.09202
1782 94 1 43.1493 12.8402 22.5451 1.008 0.10167
1783 94 1 42.6446 13.9515 23.7992 1.008 0.10167
1784 94 1 40.8736 12.9589 22.136 1.008 0.08773
1785 94 1 40.9712 11.5091 23.1437 1.008 0.08773
1786 94 1 40.4438 13.0429 23.8437 1.008 0.08773
1787 95 4 35.3021 8.89956 26.268 15.999 -0.35515
1788 95 2 34.2096 8.0725 26.5962 12.011 0.03297
1789 95 2 35.0018 10.2792 26.3949 12.011 0.01762
1790 95 2 33.9319 10.7063 25.3798 12.011 -0.23743
1791 95 2 33.6992 12.2108 25.3927 12.011 -0.24423
1792 95 3 34.6906 6.65314 26.525 12.011 -0.1837
1793 95 3 34.2315 5.75872 25.6468 12.011 -0.23415
1794 95 1 33.4724 6.02458 24.9253 1.008 0.12909
1795 95 1 34.5558 4.72553 25.67 1.008 0.12909
1796 95 1 35.4107 6.3545 27.2667 1.008 0.15086
1797 95 1 33.4025 8.17074 25.8759 1.008 0.07222
1798 95 1 33.8157 8.30601 27.5875 1.008 0.07222
1799 95 1 34.6881 10.5095 27.4196 1.008 0.09202
1800 95 1 35.9248 10.835 26.2041 1.008 0.09202
1801 95 1 32.9727 10.2382 25.5927 1.008 0.10167
1802 95 1 34.2263 10.3833 24.3772 1.008 0.10167
1803 95 1 32.725 12.457 24.9756 1.008 0.08773
1804 95 1 33.734 12.5937 26.4136 1.008 0.08773
1805 95 1 34.4614 12.7274 24.8098 1.008 0.08773
1806 96 4 9.10018 6.20902 32.6404 15.999 -0.35515
1807 96 2 8.69186 6.54515 33.9522 12.011 0.03297
1808 96 2 9.75456 4.94756 32.5773 12.011 0.01762
1809 96 2 11.091 4.9758 33.3352 12.011 -0.23743
1810 96 2 11.8745 3.67808 33.1818 12.011 -0.24423
1811 96 3 7.90005 7.82398 33.8986 12.011 -0.1837
1812 96 3 8.29797 8.96085 34.475 12.011 -0.23415
1813 96 1 9.22494 9.01599 35.0258 1.008 0.12909
1814 96 1 7.70791 9.86373 34.3999 1.008 0.12909
1815 96 1 6.96991 7.80474 33.3546 1.008 0.15086
1816 96 1 9.55406 6.73445 34.5867 1.008 0.07222
1817 96 1 8.10797 5.74039 34.4039 1.008 0.07222
1818 96 1 9.10093 4.15711 32.9667 1.008 0.09202
1819 96 1 9.94326 4.72047 31.5236 1.008 0.09202
1820 96 1 10.935 5.1197 34.4024 1.008 0.10167
1821 96 1 11.6975 5.81787 32.9903 1.008 0.10167
1822 96 1 12.5894 3.56088 33.9947 1.008 0.08773
1823 96 1 11.2032 2.81739 33.2006 1.008 0.08773
1824 96 1 12.4251 3.65826 32.2413 1.008 0.08773
1825 97 4 18.1921 30.5451 34.9664 15.999 -0.35515
1826 97 2 17.0584 29.938 34.3809 12.011 0.03297
1827 97 2 18.8488 31.4413 34.0778 12.011 0.01762
1828 97 2 19.4516 30.7067 32.8693 12.011 -0.23743
1829 97 2 20.2487 31.6468 31.9702 12.011 -0.24423
1830 97 3 16.3732 29.0949 35.4203 12.011 -0.1837
1831 97 3 16.2727 27.7671 35.3298 12.011 -0.23415
1832 97 1 16.6765 27.2246 34.4901 1.008 0.12909
1833 97 1 15.7861 27.1866 36.098 1.008 0.12909
1834 97 1 15.9539 29.6005 36.2761 1.008 0.15086
1835 97 1 17.3536 29.2631 33.5809 1.008 0.07222
1836 97 1 16.3771 30.6831 33.9646 1.008 0.07222
1837 97 1 18.1555 32.2257 33.7498 1.008 0.09202
1838 97 1 19.6531 31.9322 34.6338 1.008 0.09202
1839 97 1 18.676 30.2641 32.2472 1.008 0.10167
1840 97 1 20.0835 29.8825 33.2125 1.008 0.10167
1841 97 1 20.3096 31.2641 30.954 1.008 0.08773
1842 97 1 19.7691 32.6247 31.9144 1.008 0.08773
1843 97 1 21.2626 31.7851 32.3448 1.008 0.08773
1844 98 4 41.1865 47.7431 44.3799 15.999 -0.35515
1845 98 2 41.8823 48.9743 44.4032 12.011 0.03297
1846 98 2 40.0309 47.7851 43.5531 12.011 0.01762
1847 98 2 38.9699 48.7359 44.1242 12.011 -0.23743
1848 98 2 37.6729 48.7057 43.3234 12.011 -0.24423
1849 98 3 43.149 48.7921 45.193 12.011 -0.1837
1850 98 3 43.3891 49.4106 46.352 12.011 -0.23415
1851 98 1 42.6724 50.0934 46.7816 1.008 0.12909
1852 98 1 44.3073 49.2432 46.8969 1.008 0.12909
1853 98 1 43.8866 48.1196 44.787 1.008 0.15086
1854 98 1 41.2987 49.736 44.914 1.008 0.07222
1855 98 1 42.098 49.3315 43.3936 1.008 0.07222
1856 98 1 40.3034 48.0625 42.5265 1.008 0.09202
1857 98 1 39.6092 46.7773 43.5207 1.008 0.09202
1858 98 1 39.3193 49.7662 44.1184 1.008 0.10167
1859 98 1 38.7685 48.4773 45.1668 1.008 0.10167
1860 98 1 37.0979 49.6153 43.4889 1.008 0.08773
1861 98 1 37.8814 48.6295 42.2548 1.008 0.08773
1862 98 1 37.0536 47.8558 43.6094 1.008 0.08773
1863 99 4 43.9986 48.2403 30.7741 15.999 -0.35515
1864 99 2 44.1848 48.0581 29.3919 12.011 0.03297
1865 99 2 42.7377 47.8173 31.2702 12.011 0.01762
1866 99 2 41.5979 48.6246 30.6302 12.011 -0.23743
1867 99 2 40.2552 48.2774 31.2555 12.011 -0.24423
1868 99 3 45.5703 48.5388 29.0424 12.011 -0.1837
1869 99 3 45.8316 49.4923 28.1402 12.011 -0.23415
1870 99 1 45.0391 50.0071 27.6079 1.008 0.12909
1871 99 1 46.8548 49.7705 27.9011 1.008 0.12909
1872 99 1 46.3942 48.0439 29.5254 1.008 0.15086
1873 99 1 43.4839 48.6451 28.7955 1.008 0.07222
1874 99 1 44.0515 46.999 29.1653 1.008 0.07222
1875 99 1 42.6199 46.7381 31.1061 1.008 0.09202
1876 99 1 42.7393 47.9771 32.3568 1.008 0.09202
1877 99 1 41.5364 48.3827 29.5754 1.008 0.10167
1878 99 1 41.7751 49.7 30.7059 1.008 0.10167
1879 99 1 39.4295 48.4807 30.5755 1.008 0.08773
1880 99 1 40.2357 47.2122 31.4878 1.008 0.08773
1881 99 1 40.0859 48.8322 32.1822 1.008 0.08773
1882 100 4 16.6247 24.2665 4.04458 15.999 -0.35515
1883 100 2 16.0712 24.0893 2.7614 12.011 0.03297
1884 100 2 15.661 24.526 5.0572 12.011 0.01762
1885 100 2 14.9799 25.8971 4.8661 12.011 -0.23743
1886 100 2 13.963 26.2239 5.95885 12.011 -0.24423
1887 100 3 17.1643 23.7637 1.77471 12.011 -0.1837
1888 100 3 17.4846 24.5409 0.735034 12.011 -0.23415
1889 100 1 16.9646 25.4696 0.542832 1.008 0.12909
1890 100 1 18.2768 24.2597 0.0521321 1.008 0.12909
1891 100 1 17.7006 22.8417 1.93267 1.008 0.15086
1892 100 1 15.6107 25.0132 2.42031 1.008 0.07222
1893 100 1 15.3218 23.2963 2.7873 1.008 0.07222
1894 100 1 14.9209 23.7209 5.08751 1.008 0.09202
1895 100 1 16.1831 24.5377 6.01658 1.008 0.09202
1896 100 1 14.4241 25.916 3.93311 1.008 0.10167
1897 100 1 15.7248 26.6999 4.77672 1.008 0.10167
1898 100 1 13.1962 26.9016 5.58492 1.008 0.08773
1899 100 1 13.4735 25.3143 6.3067 1.008 0.08773
1900 100 1 14.4525 26.7062 6.80273 1.008 0.08773
1901 101 4 23.7027 19.2056 17.238 15.999 -0.35515
1902 101 2 24.4906 18.0697 16.9476 12.011 0.03297
1903 101 2 23.0256 19.6822 16.0827 12.011 0.01762
1904 101 2 24.0264 20.2415 15.0561 12.011 -0.23743
1905 101 2 23.3459 20.9288 13.8801 12.011 -0.24423
1906 101 3 25.0722 17.5424 18.2288 12.011 -0.1837
1907 101 3 26.3835 17.518 18.4789 12.011 -0.23415
1908 101 1 27.1009 17.874 17.7574 1.008 0.12909
1909 101 1 26.7608 17.1712 19.4292 1.008 0.12909
1910 101 1 24.3855 17.1946 18.9832 1.008 0.15086
1911 101 1 25.3316 18.3363 16.3134 1.008 0.07222
1912 101 1 23.9065 17.3081 16.4288 1.008 0.07222
1913 101 1 22.4129 18.8851 15.6495 1.008 0.09202
1914 101 1 22.329 20.4652 16.3902 1.008 0.09202
1915 101 1 24.6366 19.4454 14.6358 1.008 0.10167
1916 101 1 24.7177 20.9339 15.5427 1.008 0.10167
1917 101 1 24.0238 20.9744 13.0336 1.008 0.08773
1918 101 1 22.461 20.3718 13.5763 1.008 0.08773
1919 101 1 23.0384 21.9469 14.1159 1.008 0.08773
1920 102 4 49.0651 25.6675 3.60922 15.999 -0.35515
1921 102 2 48.7495 25.8434 2.24151 12.011 0.03297
1922 102 2 47.9856 26.0258 4.46542 12.011 0.01762
1923 102 2 47.7051 27.5352 4.39566 12.011 -0.23743
1924 102 2 46.6411 27.9792 5.39267 12.011 -0.24423
1925 102 3 49.8882 25.3129 1.41351 12.011 -0.1837
1926 102 3 50.6518 26.0796 0.631857 12.011 -0.23415
1927 102 1 50.4794 27.1423 0.548676 1.008 0.12909
1928 102 1 51.4689 25.659 0.0625767 1.008 0.12909
1929 102 1 50.0831 24.2545 1.47315 1.008 0.15086
1930 102 1 48.6492 26.899 2.00182 1.008 0.07222
1931 102 1 47.8112 25.3465 1.98379 1.008 0.07222
1932 102 1 47.086 25.4481 4.21531 1.008 0.09202
1933 102 1 48.264 25.7578 5.48929 1.008 0.09202
1934 102 1 47.3447 27.8247 3.41077 1.008 0.10167
1935 102 1 48.6283 28.0939 4.56707 1.008 0.10167
1936 102 1 46.1934 28.9224 5.08475 1.008 0.08773
1937 102 1 45.8438 27.2374 5.46174 1.008 0.08773
1938 102 1 47.0638 28.1144 6.38832 1.008 0.08773
1939 103 4 44.5415 17.1313 16.4216 15.999 -0.35515
1940 103 2 44.3671 17.7135 15.148 12.011 0.03297
1941 103 2 44.6639 15.7096 16.3404 12.011 0.01762
1942 103 2 43.3646 15.0292 15.9457 12.011 -0.23743
1943 103 2 43.492 13.5103 15.9673 12.011 -0.24423
1944 103 3 44.3559 19.2092 15.2843 12.011 -0.1837
1945 103 3 43.2923 19.9651 14.9999 12.011 -0.23415
1946 103 1 42.3694 19.5266 14.6544 1.008 0.12909
1947 103 1 43.3218 21.041 15.1135 1.008 0.12909
1948 103 1 45.265 19.6795 15.6275 1.008 0.15086
1949 103 1 43.4162 17.4183 14.7156 1.008 0.07222
1950 103 1 45.1623 17.4035 14.472 1.008 0.07222
1951 103 1 45.4171 15.4073 15.6082 1.008 0.09202
1952 103 1 44.9783 15.3346 17.3208 1.008 0.09202
1953 103 1 43.0566 15.3183 14.9465 1.008 0.10167
1954 103 1 42.6074 15.3529 16.6522 1.008 0.10167
1955 103 1 42.7997 13.0486 15.2634 1.008 0.08773
1956 103 1 44.5091 13.196 15.7008 1.008 0.08773
1957 103 1 43.2637 13.117 16.9619 1.008 0.08773
1958 104 4 15.2517 7.68666 2.10496 15.999 -0.35515
1959 104 2 15.2434 8.32098 0.845936 12.011 0.03297
1960 104 2 14.2441 6.69493 2.2513 12.011 0.01762
1961 104 2 12.8273 7.28294 2.07936 12.011 -0.23743
1962 104 2 11.7103 6.31358 2.49179 12.011 -0.24423
1963 104 3 16.4293 9.22944 0.70924 12.011 -0.1837
1964 104 3 16.2975 10.5239 0.423606 12.011 -0.23415
1965 104 1 15.304 10.9132 0.249842 1.008 0.12909
1966 104 1 17.1325 11.2226 0.364571 1.008 0.12909
1967 104 1 17.4029 8.81714 0.860293 1.008 0.15086
1968 104 1 14.3376 8.92078 0.709383 1.008 0.07222
1969 104 1 15.2965 7.56853 0.0761205 1.008 0.07222
1970 104 1 14.3894 5.87852 1.54703 1.008 0.09202
1971 104 1 14.3214 6.30497 3.26441 1.008 0.09202
1972 104 1 12.6305 7.6226 1.04858 1.008 0.10167
1973 104 1 12.7719 8.19325 2.68891 1.008 0.10167
1974 104 1 10.7552 6.632 2.08343 1.008 0.08773
1975 104 1 11.9376 5.32206 2.11545 1.008 0.08773
1976 104 1 11.6264 6.26839 3.5749 1.008 0.08773
1977 105 4 9.41656 40.1192 30.7273 15.999 -0.35515
1978 105 2 9.82849 39.3168 29.655 12.011 0.03297
1979 105 2 9.66147 41.5101 30.4962 12.011 0.01762
1980 105 2 11.1504 41.8481 30.4614 12.011 -0.23743
1981 105 2 11.3391 43.3587 30.4454 12.011 -0.24423
1982 105 3 9.47128 37.8874 29.9495 12.011 -0.1837
1983 105 3 10.3808 36.9149 30.0527 12.011 -0.23415
1984 105 1 11.4373 37.1139 29.919 1.008 0.12909
1985 105 1 10.0903 35.8927 30.2795 1.008 0.12909
1986 105 1 8.42735 37.6465 30.0884 1.008 0.15086
1987 105 1 10.9076 39.3658 29.5695 1.008 0.07222
1988 105 1 9.37253 39.662 28.7298 1.008 0.07222
1989 105 1 9.11361 41.8737 29.6147 1.008 0.09202
1990 105 1 9.24548 42.0943 31.3154 1.008 0.09202
1991 105 1 11.6161 41.439 29.578 1.008 0.10167
1992 105 1 11.6347 41.4209 31.3372 1.008 0.10167
1993 105 1 12.2922 43.6377 29.9902 1.008 0.08773
1994 105 1 10.5314 43.8515 29.8814 1.008 0.08773
1995 105 1 11.3119 43.7551 31.468 1.008 0.08773
1996 106 4 8.67413 30.0286 35.7527 15.999 -0.35515
1997 106 2 8.09225 29.8637 37.0337 12.011 0.03297
1998 106 2 7.78012 29.8658 34.6547 12.011 0.01762
1999 106 2 7.14176 28.4654 34.6089 12.011 -0.23743
2000 106 2 6.19677 28.3164 33.4201 12.011 -0.24423
2001 106 3 9.16627 30.0526 38.0798 12.011 -0.1837
2002 106 3 9.59633 29.0894 38.9021 12.011 -0.23415
2003 106 1 9.18428 28.09 38.8888 1.008 0.12909
2004 106 1 10.4177 29.2373 39.5933 1.008 0.12909
2005 106 1 9.66076 31.0079 38.0967 1.008 0.15086
2006 106 1 7.71984 28.8505 37.1648 1.008 0.07222
2007 106 1 7.27536 30.5682 37.1824 1.008 0.07222
2008 106 1 7.01053 30.6511 34.6897 1.008 0.09202
2009 106 1 8.3625 30.0192 33.7344 1.008 0.09202
2010 106 1 6.54698 28.2839 35.4988 1.008 0.10167
2011 106 1 7.91509 27.6941 34.5751 1.008 0.10167
2012 106 1 5.4562 27.5383 33.6045 1.008 0.08773
2013 106 1 5.65823 29.2519 33.2367 1.008 0.08773
2014 106 1 6.74118 28.0595 32.5088 1.008 0.08773
2015 107 4 11.5585 40.7508 15.4543 15.999 -0.35515
2016 107 2 12.1197 39.5069 15.0889 12.011 0.03297
2017 107 2 11.6844 41.0262 16.8441 12.011 0.01762
2018 107 2 10.8621 40.0348 17.6829 12.011 -0.23743
2019 107 2 10.884 40.3704 19.1696 12.011 -0.24423
2020 107 3 12.0509 39.3734 13.5925 12.011 -0.1837
2021 107 3 11.3211 38.4442 12.9705 12.011 -0.23415
2022 107 1 10.7335 37.7277 13.5245 1.008 0.12909
2023 107 1 11.2817 38.3952 11.891 1.008 0.12909
2024 107 1 12.6169 40.0814 13.0081 1.008 0.15086
2025 107 1 11.5413 38.6862 15.5052 1.008 0.07222
2026 107 1 13.1481 39.4169 15.4438 1.008 0.07222
2027 107 1 12.7403 41.0123 17.1411 1.008 0.09202
2028 107 1 11.3108 42.0406 17.019 1.008 0.09202
2029 107 1 11.243 39.0205 17.5862 1.008 0.10167
2030 107 1 9.82891 40.0188 17.3243 1.008 0.10167
2031 107 1 10.6383 39.4949 19.7673 1.008 0.08773
2032 107 1 11.8724 40.7187 19.4732 1.008 0.08773
2033 107 1 10.1626 41.1538 19.407 1.008 0.08773
2034 108 4 20.47 39.5283 21.574 15.999 -0.35515
2035 108 2 20.2637 40.2384 22.7793 12.011 0.03297
2036 108 2 20.4551 38.1175 21.7564 12.011 0.01762
2037 108 2 21.6359 37.6547 22.6248 12.011 -0.23743
2038 108 2 21.709 36.1373 22.7456 12.011 -0.24423
2039 108 3 20.1743 41.7067 22.4623 12.011 -0.1837
2040 108 3 21.062 42.6067 22.8916 12.011 -0.23415
2041 108 1 21.901 42.3192 23.5074 1.008 0.12909
2042 108 1 20.9776 43.6512 22.6242 1.008 0.12909
2043 108 1 19.3508 42.0261 21.8437 1.008 0.15086
2044 108 1 21.1091 40.1133 23.4511 1.008 0.07222
2045 108 1 19.3643 39.8938 23.2931 1.008 0.07222
2046 108 1 19.499 37.7986 22.1898 1.008 0.09202
2047 108 1 20.5343 37.6514 20.7692 1.008 0.09202
2048 108 1 21.5608 38.042 23.6387 1.008 0.10167
2049 108 1 22.5734 38.0372 22.211 1.008 0.10167
2050 108 1 22.275 35.8465 23.6284 1.008 0.08773
2051 108 1 20.7088 35.7086 22.8293 1.008 0.08773
2052 108 1 22.1916 35.6982 21.8722 1.008 0.08773
2053 109 4 40.7995 36.511 30.0966 15.999 -0.35515
2054 109 2 40.646 35.1554 29.7378 12.011 0.03297
2055 109 2 39.6791 37.0438 30.8015 12.011 0.01762
2056 109 2 38.4359 37.0846 29.9059 12.011 -0.23743
2057 109 2 37.2476 37.782 30.5581 12.011 -0.24423
2058 109 3 41.9083 34.6636 29.0774 12.011 -0.1837
2059 109 3 41.9644 34.2226 27.8184 12.011 -0.23415
2060 109 1 41.0875 34.1934 27.1867 1.008 0.12909
2061 109 1 42.8987 33.876 27.394 1.008 0.12909
2062 109 1 42.808 34.6681 29.674 1.008 0.15086
2063 109 1 39.8521 35.0457 29.0026 1.008 0.07222
2064 109 1 40.4143 34.5523 30.618 1.008 0.07222
2065 109 1 39.4981 36.4812 31.7243 1.008 0.09202
2066 109 1 39.9094 38.0717 31.0998 1.008 0.09202
2067 109 1 38.1147 36.0884 29.6227 1.008 0.10167
2068 109 1 38.6773 37.5988 28.9745 1.008 0.10167
2069 109 1 36.3113 37.4583 30.1052 1.008 0.08773
2070 109 1 37.2039 37.5588 31.6238 1.008 0.08773
2071 109 1 37.3176 38.865 30.4311 1.008 0.08773
2072 110 4 29.0183 1.95164 32.5023 15.999 -0.35515
2073 110 2 28.9857 2.52407 31.2089 12.011 0.03297
2074 110 2 29.8493 2.66461 33.4157 12.011 0.01762
2075 110 2 31.314 2.68913 32.9612 12.011 -0.23743
2076 110 2 32.2282 3.3671 33.9756 12.011 -0.24423
2077 110 3 27.9777 1.78043 30.3774 12.011 -0.1837
2078 110 3 28.3094 1.12078 29.2653 12.011 -0.23415
2079 110 1 29.3334 1.10509 28.9232 1.008 0.12909
2080 110 1 27.5773 0.577851 28.6838 1.008 0.12909
2081 110 1 26.9529 1.78306 30.7135 1.008 0.15086
2082 110 1 29.9467 2.42815 30.7103 1.008 0.07222
2083 110 1 28.7503 3.58473 31.2407 1.008 0.07222
2084 110 1 29.4868 3.6879 33.5585 1.008 0.09202
2085 110 1 29.7856 2.16485 34.3866 1.008 0.09202
2086 110 1 31.4255 3.2393 32.0293 1.008 0.10167
2087 110 1 31.6632 1.67006 32.7796 1.008 0.10167
2088 110 1 33.1475 3.71151 33.5051 1.008 0.08773
2089 110 1 31.74 4.23028 34.4308 1.008 0.08773
2090 110 1 32.5053 2.68123 34.7765 1.008 0.08773
2091 111 4 28.1411 15.1691 35.6931 15.999 -0.35515
2092 111 2 27.5637 14.5954 34.5368 12.011 0.03297
2093 111 2 29.4 14.592 36.0151 12.011 0.01762
2094 111 2 29.247 13.1138 36.4012 12.011 -0.23743
2095 111 2 30.564 12.5054 36.8536 12.011 -0.24423
2096 111 3 26.3019 15.3458 34.211 12.011 -0.1837
2097 111 3 25.0864 14.7941 34.2406 12.011 -0.23415
2098 111 1 24.9428 13.7558 34.4998 1.008 0.12909
2099 111 1 24.204 15.3751 34.013 1.008 0.12909
2100 111 1 26.4063 16.3862 33.9505 1.008 0.15086
2101 111 1 27.2746 13.5628 34.7149 1.008 0.07222
2102 111 1 28.262 14.6142 33.6976 1.008 0.07222
2103 111 1 30.1003 14.7068 35.1784 1.008 0.09202
2104 111 1 29.8182 15.1419 36.8641 1.008 0.09202
2105 111 1 28.9087 12.5107 35.5609 1.008 0.10167
2106 111 1 28.4974 13.0044 37.1903 1.008 0.10167
2107 111 1 30.5353 11.4249 36.7337 1.008 0.08773
2108 111 1 31.396 12.8797 36.2559 1.008 0.08773
2109 111 1 30.7672 12.7424 37.8978 1.008 0.08773
2110 112 4 31.7059 32.9909 29.3944 15.999 -0.35515
2111 112 2 31.7631 34.2584 30.0175 12.011 0.03297
2112 112 2 30.6541 32.1908 29.9155 12.011 0.01762
2113 112 2 30.9287 31.8204 31.3808 12.011 -0.23743
2114 112 2 29.8935 30.8525 31.9394 12.011 -0.24423
2115 112 3 32.79 35.0943 29.3136 12.011 -0.1837
2116 112 3 33.9208 35.513 29.8846 12.011 -0.23415
2117 112 1 34.1685 35.2694 30.9086 1.008 0.12909
2118 112 1 34.6316 36.1072 29.3275 1.008 0.12909
2119 112 1 32.5783 35.349 28.2885 1.008 0.15086
2120 112 1 32.0915 34.172 31.0502 1.008 0.07222
2121 112 1 30.7894 34.7532 30.0031 1.008 0.07222
2122 112 1 29.6946 32.7091 29.8196 1.008 0.09202
2123 112 1 30.5811 31.2849 29.3094 1.008 0.09202
2124 112 1 30.9037 32.7009 32.0191 1.008 0.10167
2125 112 1 31.9283 31.3901 31.4822 1.008 0.10167
2126 112 1 29.8674 30.8956 33.0269 1.008 0.08773
2127 112 1 28.8973 31.0941 31.5635 1.008 0.08773
2128 112 1 30.1175 29.8242 31.6547 1.008 0.08773
2129 113 4 9.90713 23.0932 29.4786 15.999 -0.35515
2130 113 2 10.4939 22.7812 30.7267 12.011 0.03297
2131 113 2 9.29556 24.376 29.5687 12.011 0.01762
2132 113 2 8.09556 24.3565 30.5309 12.011 -0.23743
2133 113 2 7.27981 25.638 30.4546 12.011 -0.24423
2134 113 3 11.3801 21.5653 30.7035 12.011 -0.1837
2135 113 3 11.1319 20.4822 31.4377 12.011 -0.23415
2136 113 1 10.2503 20.4084 32.0594 1.008 0.12909
2137 113 1 11.8207 19.658 31.4354 1.008 0.12909
2138 113 1 12.2781 21.6288 30.1195 1.008 0.15086
2139 113 1 9.73024 22.5963 31.4915 1.008 0.07222
2140 113 1 11.065 23.6498 31.0374 1.008 0.07222
2141 113 1 10.0306 25.1246 29.8915 1.008 0.09202
2142 113 1 8.964 24.6664 28.5693 1.008 0.09202
2143 113 1 8.41193 24.2525 31.5668 1.008 0.10167
2144 113 1 7.45959 23.4982 30.3035 1.008 0.10167
2145 113 1 6.65185 25.7513 31.3387 1.008 0.08773
2146 113 1 7.93676 26.5099 30.3889 1.008 0.08773
2147 113 1 6.63561 25.629 29.5729 1.008 0.08773
2148 114 4 24.9111 38.9875 15.4139 15.999 -0.35515
2149 114 2 25.224 38.1845 14.3085 12.011 0.03297
2150 114 2 23.6317 39.5761 15.3074 12.011 0.01762
2151 114 2 23.55 40.5414 14.1133 12.011 -0.23743
2152 114 2 22.2111 41.2696 14.0879 12.011 -0.24423
2153 114 3 26.5372 37.4765 14.5372 12.011 -0.1837
2154 114 3 27.5778 37.6075 13.7113 12.011 -0.23415
2155 114 1 27.4889 38.2411 12.8485 1.008 0.12909
2156 114 1 28.5081 37.0866 13.8629 1.008 0.12909
2157 114 1 26.6133 36.8191 15.3944 1.008 0.15086
2158 114 1 25.37 38.8043 13.4314 1.008 0.07222
2159 114 1 24.4292 37.4636 14.1066 1.008 0.07222
2160 114 1 22.8681 38.7902 15.2403 1.008 0.09202
2161 114 1 23.4565 40.1252 16.2373 1.008 0.09202
2162 114 1 23.6387 40.0077 13.1666 1.008 0.10167
2163 114 1 24.3782 41.2561 14.1513 1.008 0.10167
2164 114 1 21.9834 41.6317 13.0857 1.008 0.08773
2165 114 1 21.4086 40.5904 14.3933 1.008 0.08773
2166 114 1 22.2172 42.1178 14.775 1.008 0.08773
2167 115 4 36.1221 18.2694 1.46767 15.999 -0.35515
2168 115 2 36.0507 18.8464 2.75663 12.011 0.03297
2169 115 2 37.2437 17.4075 1.32029 12.011 0.01762
2170 115 2 38.5625 18.1953 1.38597 12.011 -0.23743
2171 115 2 39.7786 17.3188 1.10959 12.011 -0.24423
2172 115 3 34.7683 19.6266 2.85843 12.011 -0.1837
2173 115 3 34.7291 20.952 2.99952 12.011 -0.23415
2174 115 1 35.6414 21.5231 3.05364 1.008 0.12909
2175 115 1 33.7913 21.4878 3.05511 1.008 0.12909
2176 115 1 33.8471 19.0712 2.80284 1.008 0.15086
2177 115 1 36.8652 19.5515 2.90708 1.008 0.07222
2178 115 1 36.1109 18.0851 3.53772 1.008 0.07222
2179 115 1 37.2186 16.6173 2.08092 1.008 0.09202
2180 115 1 37.1637 16.9189 0.344891 1.008 0.09202
2181 115 1 38.712 18.6288 2.37303 1.008 0.10167
2182 115 1 38.536 19.0281 0.677746 1.008 0.10167
2183 115 1 40.6794 17.7656 1.52596 1.008 0.08773
2184 115 1 39.6543 16.3341 1.56307 1.008 0.08773
2185 115 1 39.9311 17.1818 0.0393465 1.008 0.08773
2186 116 4 36.1163 34.3263 33.1378 15.999 -0.35515
2187 116 2 37.131 35.0552 33.8 12.011 0.03297
2188 116 2 36.6241 33.3097 32.288 12.011 0.01762
2189 116 2 37.3469 33.9297 31.0889 12.011 -0.23743
2190 116 2 37.8117 32.8842 30.0824 12.011 -0.24423
2191 116 3 36.4943 35.9964 34.7888 12.011 -0.1837
2192 116 3 36.5316 37.3285 34.6816 12.011 -0.23415
2193 116 1 37.0407 37.8196 33.8662 1.008 0.12909
2194 116 1 36.0281 37.9616 35.4019 1.008 0.12909
2195 116 1 35.9563 35.5566 35.6133 1.008 0.15086
2196 116 1 37.6901 35.6652 33.0933 1.008 0.07222
2197 116 1 37.822 34.3768 34.3037 1.008 0.07222
2198 116 1 37.2866 32.6373 32.8494 1.008 0.09202
2199 116 1 35.7719 32.7211 31.9323 1.008 0.09202
2200 116 1 38.2323 34.4663 31.4177 1.008 0.10167
2201 116 1 36.687 34.6485 30.6002 1.008 0.10167
2202 116 1 38.6199 33.257 29.4575 1.008 0.08773
2203 116 1 38.1929 32.0115 30.6129 1.008 0.08773
2204 116 1 36.9976 32.5687 29.4247 1.008 0.08773
2205 117 4 27.8963 9.43503 26.6652 15.999 -0.35515
2206 117 2 27.351 9.54218 27.962 12.011 0.03297
2207 117 2 28.2636 10.6942 26.1201 12.011 0.01762
2208 117 2 27.0475 11.6068 25.9199 12.011 -0.23743
2209 117 2 27.4236 12.9104 25.222 12.011 -0.24423
2210 117 3 27.1199 8.15405 28.4794 12.011 -0.1837
2211 117 3 25.9144 7.72354 28.8229 12.011 -0.23415
2212 117 1 25.0776 8.39938 28.7427 1.008 0.12909
2213 117 1 25.7288 6.71651 29.1764 1.008 0.12909
2214 117 1 27.9725 7.49942 28.5556 1.008 0.15086
2215 117 1 26.3819 10.0345 27.9395 1.008 0.07222
2216 117 1 27.9976 10.0956 28.6401 1.008 0.07222
2217 117 1 29.0099 11.188 26.7526 1.008 0.09202
2218 117 1 28.7311 10.5047 25.1495 1.008 0.09202
2219 117 1 26.5812 11.8723 26.8669 1.008 0.10167
2220 117 1 26.2906 11.0777 25.3379 1.008 0.10167
2221 117 1 26.7041 13.6987 25.4346 1.008 0.08773
2222 117 1 28.4025 13.2551 25.5584 1.008 0.08773
2223 117 1 27.4725 12.7775 24.1414 1.008 0.08773
2224 118 4 8.86184 20.5747 8.63746 15.999 -0.35515
2225 118 2 7.45869 20.6545 8.78504 12.011 0.03297
2226 118 2 9.52678 21.6878 9.22026 12.011 0.01762
2227 118 2 9.19803 22.9862 8.46752 12.011 -0.23743
2228 118 2 9.98677 24.1745 9.00602 12.011 -0.24423
2229 118 3 6.85613 19.3744 8.2804 12.011 -0.1837
2230 118 3 6.05893 19.3102 7.21487 12.011 -0.23415
2231 118 1 5.7953 20.1947 6.65303 1.008 0.12909
2232 118 1 5.65974 18.3623 6.88116 1.008 0.12909
2233 118 1 7.09475 18.47 8.81531 1.008 0.15086
2234 118 1 7.05194 21.4572 8.17496 1.008 0.07222
2235 118 1 7.17526 20.8366 9.82389 1.008 0.07222
2236 118 1 9.26656 21.7745 10.2828 1.008 0.09202
2237 118 1 10.6043 21.5026 9.16495 1.008 0.09202
2238 118 1 8.14426 23.2433 8.55438 1.008 0.10167
2239 118 1 9.40199 22.8559 7.40095 1.008 0.10167
2240 118 1 9.48328 25.1122 8.78276 1.008 0.08773
2241 118 1 10.0966 24.1111 10.0894 1.008 0.08773
2242 118 1 10.9838 24.2098 8.56668 1.008 0.08773
2243 119 4 14.9482 14.515 13.5703 15.999 -0.35515
2244 119 2 15.5244 15.4671 14.447 12.011 0.03297
2245 119 2 15.7848 13.3942 13.304 12.011 0.01762
2246 119 2 16.9663 13.7935 12.4242 12.011 -0.23743
2247 119 2 17.8565 12.627 12.0155 12.011 -0.24423
2248 119 3 14.483 16.4891 14.8526 12.011 -0.1837
2249 119 3 14.4765 17.7548 14.4235 12.011 -0.23415
2250 119 1 15.2326 18.0989 13.7346 1.008 0.12909
2251 119 1 13.6916 18.4494 14.6919 1.008 0.12909
2252 119 1 13.6778 16.1503 15.4832 1.008 0.15086
2253 119 1 16.3264 15.9995 13.9381 1.008 0.07222
2254 119 1 15.9378 14.9853 15.3334 1.008 0.07222
2255 119 1 16.1186 12.9244 14.2395 1.008 0.09202
2256 119 1 15.1953 12.6617 12.743 1.008 0.09202
2257 119 1 17.5737 14.5567 12.9072 1.008 0.10167
2258 119 1 16.5581 14.2352 11.5189 1.008 0.10167
2259 119 1 18.8474 12.9852 11.7384 1.008 0.08773
2260 119 1 17.9647 11.9078 12.8292 1.008 0.08773
2261 119 1 17.4303 12.1078 11.1545 1.008 0.08773
2262 120 4 14.6619 32.293 18.063 15.999 -0.35515
2263 120 2 15.5838 33.3597 18.1606 12.011 0.03297
2264 120 2 13.7346 32.4594 16.9969 12.011 0.01762
2265 120 2 12.8081 33.6578 17.2557 12.011 -0.23743
2266 120 2 11.7236 33.7983 16.1933 12.011 -0.24423
2267 120 3 16.5934 33.0231 19.2241 12.011 -0.1837
2268 120 3 16.7234 33.7107 20.3617 12.011 -0.23415
2269 120 1 16.0982 34.5647 20.5752 1.008 0.12909
2270 120 1 17.4545 33.4262 21.1058 1.008 0.12909
2271 120 1 17.2324 32.1745 19.0409 1.008 0.15086
2272 120 1 15.0851 34.2729 18.4753 1.008 0.07222
2273 120 1 16.0722 33.5489 17.2025 1.008 0.07222
2274 120 1 14.2625 32.5684 16.0413 1.008 0.09202
2275 120 1 13.133 31.5475 16.9294 1.008 0.09202
2276 120 1 13.3636 34.5936 17.2578 1.008 0.10167
2277 120 1 12.349 33.5651 18.2438 1.008 0.10167
2278 120 1 11.3394 34.8161 16.1648 1.008 0.08773
2279 120 1 12.1185 33.5635 15.2034 1.008 0.08773
2280 120 1 10.8884 33.1262 16.3903 1.008 0.08773
2281 121 4 27.3457 6.19007 7.16017 15.999 -0.35515
2282 121 2 26.8486 5.65349 8.37008 12.011 0.03297
2283 121 2 28.4061 7.11395 7.3743 12.011 0.01762
2284 121 2 27.8915 8.37937 8.07038 12.011 -0.23743
2285 121 2 28.9678 9.45174 8.1743 12.011 -0.24423
2286 121 3 25.8378 4.58425 8.05492 12.011 -0.1837
2287 121 3 24.543 4.67723 8.37094 12.011 -0.23415
2288 121 1 24.1449 5.53988 8.88366 1.008 0.12909
2289 121 1 23.845 3.88878 8.12389 1.008 0.12909
2290 121 1 26.1981 3.70222 7.54928 1.008 0.15086
2291 121 1 26.3312 6.41703 8.94483 1.008 0.07222
2292 121 1 27.6576 5.25455 8.98579 1.008 0.07222
2293 121 1 29.2189 6.64566 7.94343 1.008 0.09202
2294 121 1 28.823 7.39728 6.40487 1.008 0.09202
2295 121 1 27.5555 8.1634 9.08245 1.008 0.10167
2296 121 1 27.0281 8.77125 7.52628 1.008 0.10167
2297 121 1 28.7373 10.1553 8.9717 1.008 0.08773
2298 121 1 29.9389 9.00244 8.39129 1.008 0.08773
2299 121 1 29.0553 10.0081 7.24055 1.008 0.08773
2300 122 4 13.548 10.8407 15.9716 15.999 -0.35515
2301 122 2 14.111 10.3366 14.7794 12.011 0.03297
2302 122 2 12.4459 11.7105 15.7485 12.011 0.01762
2303 122 2 12.9243 13.0093 15.1177 12.011 -0.23743
2304 122 2 11.8342 14.0621 14.9613 12.011 -0.24423
2305 122 3 15.125 9.28796 15.1477 12.011 -0.1837
2306 122 3 16.4403 9.43162 14.9538 12.011 -0.23415
2307 122 1 16.8476 10.3262 14.5038 1.008 0.12909
2308 122 1 17.1344 8.65314 15.2453 1.008 0.12909
2309 122 1 14.7514 8.38333 15.5975 1.008 0.15086
2310 122 1 14.6435 11.1247 14.2598 1.008 0.07222
2311 122 1 13.3498 9.93898 14.103 1.008 0.07222
2312 122 1 11.677 11.2345 15.1255 1.008 0.09202
2313 122 1 11.999 11.9536 16.7135 1.008 0.09202
2314 122 1 13.2748 12.8006 14.1129 1.008 0.10167
2315 122 1 13.7669 13.4126 15.6851 1.008 0.10167
2316 122 1 12.1275 14.7738 14.188 1.008 0.08773
2317 122 1 10.8919 13.6038 14.6547 1.008 0.08773
2318 122 1 11.6682 14.6123 15.8885 1.008 0.08773
2319 123 4 47.9699 4.91572 47.2699 15.999 -0.35515
2320 123 2 48.2638 4.37132 48.5418 12.011 0.03297
2321 123 2 47.5856 3.92295 46.3273 12.011 0.01762
2322 123 2 48.7498 2.96693 46.017 12.011 -0.23743
2323 123 2 48.4057 1.95899 44.9265 12.011 -0.24423
2324 123 3 48.5385 5.50211 49.4949 12.011 -0.1837
2325 123 3 49.7262 5.70953 50.0689 12.011 -0.23415
2326 123 1 50.5644 5.0557 49.8802 1.008 0.12909
2327 123 1 49.8868 6.54587 50.7351 1.008 0.12909
2328 123 1 47.7244 6.17618 49.7058 1.008 0.15086
2329 123 1 49.1673 3.76785 48.5049 1.008 0.07222
2330 123 1 47.4473 3.74216 48.9031 1.008 0.07222
2331 123 1 46.7147 3.37304 46.6998 1.008 0.09202
2332 123 1 47.2786 4.42987 45.4075 1.008 0.09202
2333 123 1 49.0279 2.38583 46.8941 1.008 0.10167
2334 123 1 49.6344 3.54015 45.726 1.008 0.10167
2335 123 1 49.064 1.09357 44.9788 1.008 0.08773
2336 123 1 47.3821 1.60093 45.0415 1.008 0.08773
2337 123 1 48.5054 2.40314 43.936 1.008 0.08773
2338 124 4 8.12743 14.4145 7.55062 15.999 -0.35515
2339 124 2 7.92668 14.1187 6.18514 12.011 0.03297
2340 124 2 9.18316 15.3468 7.744 12.011 0.01762
2341 124 2 10.5399 14.777 7.30073 12.011 -0.23743
2342 124 2 11.6822 15.7286 7.62257 12.011 -0.24423
2343 124 3 6.73685 13.2114 6.06227 12.011 -0.1837
2344 124 3 6.81682 11.9503 5.62974 12.011 -0.23415
2345 124 1 7.75404 11.512 5.3193 1.008 0.12909
2346 124 1 5.93526 11.3312 5.58263 1.008 0.12909
2347 124 1 5.78007 13.6106 6.35236 1.008 0.15086
2348 124 1 8.7754 13.5639 5.79863 1.008 0.07222
2349 124 1 7.80264 15.025 5.58702 1.008 0.07222
2350 124 1 8.96774 16.2837 7.21373 1.008 0.09202
2351 124 1 9.22745 15.5786 8.81216 1.008 0.09202
2352 124 1 10.5779 14.6196 6.22523 1.008 0.10167
2353 124 1 10.7198 13.804 7.76715 1.008 0.10167
2354 124 1 12.5322 15.545 6.97134 1.008 0.08773
2355 124 1 11.3821 16.7684 7.49056 1.008 0.08773
2356 124 1 12.0227 15.596 8.64582 1.008 0.08773
2357 125 4 29.3702 42.9947 3.01005 15.999 -0.35515
2358 125 2 30.1733 43.5939 4.00472 12.011 0.03297
2359 125 2 27.9989 42.9278 3.39224 12.011 0.01762
2360 125 2 27.8071 42.0004 4.59746 12.011 -0.23743
2361 125 2 26.3437 41.7718 4.96404 12.011 -0.24423
2362 125 3 31.5784 43.7628 3.49403 12.011 -0.1837
2363 125 3 32.6379 43.1495 4.02697 12.011 -0.23415
2364 125 1 32.5421 42.4891 4.87577 1.008 0.12909
2365 125 1 33.6294 43.2907 3.61669 1.008 0.12909
2366 125 1 31.7182 44.4199 2.65089 1.008 0.15086
2367 125 1 30.2413 42.9427 4.87146 1.008 0.07222
2368 125 1 29.7558 44.5527 4.3201 1.008 0.07222
2369 125 1 27.6093 43.931 3.60891 1.008 0.09202
2370 125 1 27.433 42.5277 2.5454 1.008 0.09202
2371 125 1 28.2906 42.4087 5.48276 1.008 0.10167
2372 125 1 28.2803 41.0424 4.37613 1.008 0.10167
2373 125 1 26.242 41.4407 5.997 1.008 0.08773
2374 125 1 25.7684 42.6926 4.85722 1.008 0.08773
2375 125 1 25.8934 41.009 4.32789 1.008 0.08773
2376 126 4 38.0357 32.6412 42.1493 15.999 -0.35515
2377 126 2 37.1189 33.1979 41.2298 12.011 0.03297
2378 126 2 38.0236 33.2344 43.441 12.011 0.01762
2379 126 2 38.4867 34.699 43.4007 12.011 -0.23743
2380 126 2 38.5546 35.3219 44.789 12.011 -0.24423
2381 126 3 37.1364 32.4233 39.9331 12.011 -0.1837
2382 126 3 37.5721 32.9436 38.7783 12.011 -0.23415
2383 126 1 37.915 33.967 38.7312 1.008 0.12909
2384 126 1 37.6473 32.3501 37.8736 1.008 0.12909
2385 126 1 36.8463 31.3864 39.9608 1.008 0.15086
2386 126 1 37.3915 34.2281 40.999 1.008 0.07222
2387 126 1 36.1257 33.1659 41.6599 1.008 0.07222
2388 126 1 37.0268 33.1415 43.8932 1.008 0.09202
2389 126 1 38.7189 32.6619 44.067 1.008 0.09202
2390 126 1 37.81 35.3081 42.8048 1.008 0.10167
2391 126 1 39.4744 34.7752 42.947 1.008 0.10167
2392 126 1 38.4744 36.4073 44.7256 1.008 0.08773
2393 126 1 37.7417 34.953 45.4216 1.008 0.08773
2394 126 1 39.5031 35.0846 45.2748 1.008 0.08773
2395 127 4 7.66656 42.3247 21.1684 15.999 -0.35515
2396 127 2 6.38432 42.8703 20.9239 12.011 0.03297
2397 127 2 8.35583 43.0004 22.2134 12.011 0.01762
2398 127 2 8.68729 44.4487 21.8166 12.011 -0.23743
2399 127 2 9.53837 45.1762 22.8517 12.011 -0.24423
2400 127 3 5.6796 42.0238 19.8981 12.011 -0.1837
2401 127 3 5.33743 42.4674 18.686 12.011 -0.23415
2402 127 1 5.55169 43.4791 18.3764 1.008 0.12909
2403 127 1 4.84604 41.8223 17.9706 1.008 0.12909
2404 127 1 5.45377 41.0059 20.1719 1.008 0.15086
2405 127 1 6.46296 43.8697 20.5035 1.008 0.07222
2406 127 1 5.80049 42.9331 21.8448 1.008 0.07222
2407 127 1 7.76214 42.969 23.1349 1.008 0.09202
2408 127 1 9.28758 42.4579 22.403 1.008 0.09202
2409 127 1 7.78243 45.0399 21.6886 1.008 0.10167
2410 127 1 9.20487 44.4478 20.8544 1.008 0.10167
2411 127 1 9.43828 46.2554 22.7464 1.008 0.08773
2412 127 1 9.22575 44.9214 23.8625 1.008 0.08773
2413 127 1 10.5926 44.9191 22.749 1.008 0.08773
2414 128 4 25.4915 19.2243 25.1612 15.999 -0.35515
2415 128 2 24.9478 19.9835 26.2135 12.011 0.03297
2416 128 2 25.3536 19.8984 23.9185 12.011 0.01762
2417 128 2 23.8783 20.0338 23.5265 12.011 -0.23743
2418 128 2 23.6487 20.6073 22.1329 12.011 -0.24423
2419 128 3 25.2097 19.2606 27.4989 12.011 -0.1837
2420 128 3 24.2405 18.8509 28.3132 12.011 -0.23415
2421 128 1 23.1939 18.9839 28.0728 1.008 0.12909
2422 128 1 24.4716 18.4168 29.2735 1.008 0.12909
2423 128 1 26.2362 19.1434 27.7868 1.008 0.15086
2424 128 1 23.866 20.0776 26.1223 1.008 0.07222
2425 128 1 25.3702 20.9923 26.2276 1.008 0.07222
2426 128 1 25.8472 20.8791 23.9499 1.008 0.09202
2427 128 1 25.8642 19.2843 23.1714 1.008 0.09202
2428 128 1 23.3169 20.6633 24.2062 1.008 0.10167
2429 128 1 23.4357 19.0436 23.5518 1.008 0.10167
2430 128 1 22.6178 20.9278 21.9881 1.008 0.08773
2431 128 1 24.2582 21.4966 21.9749 1.008 0.08773
2432 128 1 23.8653 19.8651 21.3577 1.008 0.08773
2433 129 4 22.3027 23.942 27.4875 15.999 -0.35515
2434 129 2 21.902 23.1113 26.4225 12.011 0.03297
2435 129 2 23.6346 23.6786 27.9032 12.011 0.01762
2436 129 2 23.741 22.3185 28.5917 12.011 -0.23743
2437 129 2 25.1278 22.1285 29.208 12.011 -0.24423
2438 129 3 20.5276 23.5561 25.9886 12.011 -0.1837
2439 129 3 19.4319 22.8015 26.1076 12.011 -0.23415
2440 129 1 19.4842 21.8037 26.5149 1.008 0.12909
2441 129 1 18.474 23.133 25.7367 1.008 0.12909
2442 129 1 20.457 24.5215 25.5127 1.008 0.15086
2443 129 1 21.8248 22.0764 26.7435 1.008 0.07222
2444 129 1 22.6143 23.1521 25.5931 1.008 0.07222
2445 129 1 24.3316 23.7518 27.0553 1.008 0.09202
2446 129 1 23.9338 24.4439 28.6232 1.008 0.09202
2447 129 1 23.5672 21.5224 27.8823 1.008 0.10167
2448 129 1 22.9786 22.22 29.3624 1.008 0.10167
2449 129 1 25.3452 21.088 29.431 1.008 0.08773
2450 129 1 25.9094 22.4998 28.5313 1.008 0.08773
2451 129 1 25.2027 22.6721 30.1552 1.008 0.08773
2452 130 4 47.2146 34.458 25.3975 15.999 -0.35515
2453 130 2 46.0779 34.086 26.1506 12.011 0.03297
2454 130 2 47.7703 35.6803 25.8564 12.011 0.01762
2455 130 2 46.7861 36.8359 25.6369 12.011 -0.23743
2456 130 2 47.4182 38.1537 26.014 12.011 -0.24423
2457 130 3 45.6197 32.7446 25.6569 12.011 -0.1837
2458 130 3 44.4423 32.5324 25.0662 12.011 -0.23415
2459 130 1 43.7371 33.3348 24.9147 1.008 0.12909
2460 130 1 44.1698 31.5498 24.7075 1.008 0.12909
2461 130 1 46.3061 31.9274 25.7793 1.008 0.15086
2462 130 1 45.2499 34.7708 25.9895 1.008 0.07222
2463 130 1 46.3003 34.0655 27.2203 1.008 0.07222
2464 130 1 48.049 35.6034 26.9163 1.008 0.09202
2465 130 1 48.6874 35.8783 25.2914 1.008 0.09202
2466 130 1 45.9019 36.7475 26.2652 1.008 0.10167
2467 130 1 46.4482 36.8721 24.5975 1.008 0.10167
2468 130 1 46.6548 38.9099 26.1927 1.008 0.08773
2469 130 1 48.0232 38.0226 26.9107 1.008 0.08773
2470 130 1 48.0801 38.5026 25.2297 1.008 0.08773
2471 131 4 2.56869 21.1373 47.5954 15.999 -0.35515
2472 131 2 3.52005 21.5266 46.6241 12.011 0.03297
2473 131 2 1.57695 22.1226 47.8594 12.011 0.01762
2474 131 2 2.17393 23.4383 48.4008 12.011 -0.23743
2475 131 2 1.09668 24.4447 48.7729 12.011 -0.24423
2476 131 3 4.49436 20.3942 46.4251 12.011 -0.1837
2477 131 3 5.8033 20.4885 46.6728 12.011 -0.23415
2478 131 1 6.24909 21.4045 47.0281 1.008 0.12909
2479 131 1 6.461 19.6413 46.5303 1.008 0.12909
2480 131 1 4.09671 19.457 46.0695 1.008 0.15086
2481 131 1 4.10605 22.3765 46.9667 1.008 0.07222
2482 131 1 3.03039 21.7969 45.6874 1.008 0.07222
2483 131 1 0.989676 22.3063 46.9522 1.008 0.09202
2484 131 1 0.896148 21.7051 48.6091 1.008 0.09202
2485 131 1 2.81587 23.9193 47.6642 1.008 0.10167
2486 131 1 2.7915 23.2529 49.2794 1.008 0.10167
2487 131 1 1.49149 25.4594 48.7861 1.008 0.08773
2488 131 1 0.301709 24.3984 48.0329 1.008 0.08773
2489 131 1 0.669675 24.2251 49.7524 1.008 0.08773
2490 132 4 38.6091 27.6736 6.787 15.999 -0.35515
2491 132 2 38.2498 28.0947 5.48765 12.011 0.03297
2492 132 2 39.8623 27.0056 6.80439 12.011 0.01762
2493 132 2 39.7968 25.6899 6.01782 12.011 -0.23743
2494 132 2 41.0974 24.9097 6.13256 12.011 -0.24423
2495 132 3 36.9815 28.8934 5.59123 12.011 -0.1837
2496 132 3 35.8376 28.5518 4.99552 12.011 -0.23415
2497 132 1 35.7629 27.6555 4.39786 1.008 0.12909
2498 132 1 34.9489 29.1585 5.10731 1.008 0.12909
2499 132 1 37.0191 29.7875 6.19 1.008 0.15086
2500 132 1 38.0362 27.2492 4.83841 1.008 0.07222
2501 132 1 39.0552 28.6758 5.03333 1.008 0.07222
2502 132 1 40.6535 27.6545 6.40796 1.008 0.09202
2503 132 1 40.1117 26.7892 7.84729 1.008 0.09202
2504 132 1 39.6378 25.8661 4.95557 1.008 0.10167
2505 132 1 38.9552 25.0841 6.36646 1.008 0.10167
2506 132 1 41.2249 24.2462 5.28178 1.008 0.08773
2507 132 1 41.9564 25.5814 6.14326 1.008 0.08773
2508 132 1 41.1231 24.3119 7.04257 1.008 0.08773
2509 133 4 9.34926 2.98897 41.6052 15.999 -0.35515
2510 133 2 10.0551 1.7712 41.7896 12.011 0.03297
2511 133 2 8.03566 3.0142 42.1345 12.011 0.01762
2512 133 2 7.14738 2.05433 41.4018 12.011 -0.23743
2513 133 2 5.65163 2.13489 41.8237 12.011 -0.24423
2514 133 3 11.4846 1.97919 41.3502 12.011 -0.1837
2515 133 3 12.0537 1.34316 40.324 12.011 -0.23415
2516 133 1 11.5125 0.60927 39.7505 1.008 0.12909
2517 133 1 13.0765 1.55194 40.0431 1.008 0.12909
2518 133 1 12.0581 2.71082 41.9024 1.008 0.15086
2519 133 1 9.62744 0.977269 41.183 1.008 0.07222
2520 133 1 10.02 1.45893 42.8331 1.008 0.07222
2521 133 1 8.0545 2.76342 43.2038 1.008 0.09202
2522 133 1 7.63329 4.01466 42.0411 1.008 0.09202
2523 133 1 7.50328 1.10355 41.7013 1.008 0.10167
2524 133 1 7.22688 2.11265 40.3113 1.008 0.10167
2525 133 1 5.05972 1.29595 41.4799 1.008 0.08773
2526 133 1 5.57968 2.15759 42.9299 1.008 0.08773
2527 133 1 5.17533 3.02238 41.408 1.008 0.08773
2528 134 4 41.157 40.5253 29.9926 15.999 -0.35515
2529 134 2 42.4904 40.6551 30.435 12.011 0.03297
2530 134 2 41.0484 39.5425 28.9718 12.011 0.01762
2531 134 2 41.7691 39.9277 27.6789 12.011 -0.23743
2532 134 2 41.5009 38.9057 26.5781 12.011 -0.24423
2533 134 3 42.5263 41.5534 31.6385 12.011 -0.1837
2534 134 3 43.1529 42.7299 31.6287 12.011 -0.23415
2535 134 1 43.6636 43.0543 30.7401 1.008 0.12909
2536 134 1 43.1762 43.3907 32.4852 1.008 0.12909
2537 134 1 42.024 41.22 32.5315 1.008 0.15086
2538 134 1 43.0968 41.1153 29.6608 1.008 0.07222
2539 134 1 42.9397 39.6894 30.6545 1.008 0.07222
2540 134 1 41.4661 38.5967 29.3247 1.008 0.09202
2541 134 1 39.9852 39.3921 28.7677 1.008 0.09202
2542 134 1 42.8451 39.9528 27.8357 1.008 0.10167
2543 134 1 41.4594 40.9234 27.3568 1.008 0.10167
2544 134 1 42.2757 38.9417 25.8131 1.008 0.08773
2545 134 1 41.4824 37.8931 26.9926 1.008 0.08773
2546 134 1 40.5359 39.0863 26.1004 1.008 0.08773
2547 135 4 39.431 13.7669 18.0463 15.999 -0.35515
2548 135 2 38.9271 14.345 16.856 12.011 0.03297
2549 135 2 38.419 13.0962 18.7913 12.011 0.01762
2550 135 2 37.3543 14.0871 19.2915 12.011 -0.23743
2551 135 2 36.2993 13.4246 20.1663 12.011 -0.24423
2552 135 3 40.0557 14.9217 16.0585 12.011 -0.1837
2553 135 3 40.2099 16.2265 15.8252 12.011 -0.23415
2554 135 1 39.5118 16.9529 16.2115 1.008 0.12909
2555 135 1 41.057 16.6021 15.2648 1.008 0.12909
2556 135 1 40.7703 14.2142 15.6739 1.008 0.15086
2557 135 1 38.2514 15.1697 17.067 1.008 0.07222
2558 135 1 38.4024 13.6088 16.249 1.008 0.07222
2559 135 1 37.9662 12.3019 18.1866 1.008 0.09202
2560 135 1 38.8913 12.6096 19.6504 1.008 0.09202
2561 135 1 36.8144 14.5452 18.4648 1.008 0.10167
2562 135 1 37.8391 14.9003 19.8389 1.008 0.10167
2563 135 1 35.392 14.0262 20.1874 1.008 0.08773
2564 135 1 36.0414 12.4385 19.7766 1.008 0.08773
2565 135 1 36.657 13.3074 21.189 1.008 0.08773
2566 136 4 25.5065 1.0268 20.3977 15.999 -0.35515
2567 136 2 25.9191 2.18216 19.6947 12.011 0.03297
2568 136 2 24.0907 0.954753 20.5354 12.011 0.01762
2569 136 2 23.5519 2.08814 21.4233 12.011 -0.23743
2570 136 2 22.0544 1.97589 21.6832 12.011 -0.24423
2571 136 3 27.4078 2.12226 19.4879 12.011 -0.1837
2572 136 3 28.2632 2.9971 20.0226 12.011 -0.23415
2573 136 1 27.9217 3.81612 20.6373 1.008 0.12909
2574 136 1 29.3293 2.90519 19.8624 1.008 0.12909
2575 136 1 27.7869 1.31887 18.8782 1.008 0.15086
2576 136 1 25.7256 3.07227 20.2852 1.008 0.07222
2577 136 1 25.3906 2.28014 18.7434 1.008 0.07222
2578 136 1 23.6097 0.976977 19.5498 1.008 0.09202
2579 136 1 23.8443 -0.00625203 20.9954 1.008 0.09202
2580 136 1 23.6954 3.05434 20.9472 1.008 0.10167
2581 136 1 24.0956 2.12341 22.3715 1.008 0.10167
2582 136 1 21.6434 2.94939 21.9458 1.008 0.08773
2583 136 1 21.5331 1.62762 20.7907 1.008 0.08773
2584 136 1 21.8413 1.28289 22.4959 1.008 0.08773
2585 137 4 50.3205 9.34808 29.3294 15.999 -0.35515
2586 137 2 49.388 9.538 28.2862 12.011 0.03297
2587 137 2 50.4117 10.4841 30.183 12.011 0.01762
2588 137 2 51.01 11.7092 29.4714 12.011 -0.23743
2589 137 2 51.1312 12.9167 30.399 12.011 -0.24423
2590 137 3 49.3066 8.23721 27.5465 12.011 -0.1837
2591 137 3 49.7055 8.082 26.2835 12.011 -0.23415
2592 137 1 50.1136 8.9055 25.7175 1.008 0.12909
2593 137 1 49.6332 7.12149 25.7905 1.008 0.12909
2594 137 1 48.9068 7.39179 28.0855 1.008 0.15086
2595 137 1 49.738 10.2888 27.5822 1.008 0.07222
2596 137 1 48.4027 9.83925 28.6518 1.008 0.07222
2597 137 1 49.4164 10.6984 30.5791 1.008 0.09202
2598 137 1 51.0276 10.2282 31.0522 1.008 0.09202
2599 137 1 50.3884 12.0128 28.6377 1.008 0.10167
2600 137 1 51.9834 11.448 29.0609 1.008 0.10167
2601 137 1 51.1545 13.8428 29.8222 1.008 0.08773
2602 137 1 50.2788 12.9678 31.0881 1.008 0.08773
2603 137 1 0.0531074 12.8647 31.0063 1.008 0.08773
2604 138 4 40.8593 7.66259 21.4004 15.999 -0.35515
2605 138 2 41.8577 8.47401 20.8114 12.011 0.03297
2606 138 2 39.546 8.1669 21.1936 12.011 0.01762
2607 138 2 39.3478 9.50154 21.9263 12.011 -0.23743
2608 138 2 37.9198 10.0218 21.8346 12.011 -0.24423
2609 138 3 43.189 7.7892 20.962 12.011 -0.1837
2610 138 3 44.1909 8.27785 21.699 12.011 -0.23415
2611 138 1 44.0949 9.2107 22.2321 1.008 0.12909
2612 138 1 45.1226 7.73919 21.8021 1.008 0.12909
2613 138 1 43.318 6.84808 20.4534 1.008 0.15086
2614 138 1 41.9351 9.42832 21.3268 1.008 0.07222
2615 138 1 41.6375 8.67009 19.7599 1.008 0.07222
2616 138 1 39.3445 8.2768 20.1208 1.008 0.09202
2617 138 1 38.8372 7.43129 21.5859 1.008 0.09202
2618 138 1 39.9835 10.2732 21.4978 1.008 0.10167
2619 138 1 39.6273 9.39926 22.9776 1.008 0.10167
2620 138 1 37.8915 11.0947 22.0169 1.008 0.08773
2621 138 1 37.5038 9.83582 20.843 1.008 0.08773
2622 138 1 37.2778 9.53696 22.571 1.008 0.08773
2623 139 4 29.5772 43.8782 28.1717 15.999 -0.35515
2624 139 2 28.9878 44.0677 29.4399 12.011 0.03297
2625 139 2 30.8917 43.3447 28.2248 12.011 0.01762
2626 139 2 31.8451 44.3599 28.8692 12.011 -0.23743
2627 139 2 33.3114 43.9282 28.8323 12.011 -0.24423
2628 139 3 27.5462 44.4463 29.2268 12.011 -0.1837
2629 139 3 27.0397 45.6272 29.5885 12.011 -0.23415
2630 139 1 27.6562 46.3722 30.0711 1.008 0.12909
2631 139 1 26.0016 45.8744 29.4046 1.008 0.12909
2632 139 1 26.901 43.7284 28.7479 1.008 0.15086
2633 139 1 29.4678 44.8841 29.9764 1.008 0.07222
2634 139 1 29.0686 43.1725 30.0536 1.008 0.07222
2635 139 1 30.9177 42.3738 28.7373 1.008 0.09202
2636 139 1 31.1935 43.1685 27.1884 1.008 0.09202
2637 139 1 31.5895 44.5354 29.9112 1.008 0.10167
2638 139 1 31.7351 45.3097 28.3475 1.008 0.10167
2639 139 1 33.9116 44.4939 29.5428 1.008 0.08773
2640 139 1 33.4144 42.8668 29.0836 1.008 0.08773
2641 139 1 33.7492 44.0971 27.846 1.008 0.08773
2642 140 4 33.1607 34.6085 35.8739 15.999 -0.35515
2643 140 2 33.1666 35.1901 34.5843 12.011 0.03297
2644 140 2 33.5175 33.231 35.8295 12.011 0.01762
2645 140 2 32.4787 32.4237 35.0353 12.011 -0.23743
2646 140 2 32.7144 30.9219 35.1209 12.011 -0.24423
2647 140 3 32.9956 36.6767 34.7031 12.011 -0.1837
2648 140 3 32.002 37.3477 34.1169 12.011 -0.23415
2649 140 1 31.2603 36.8332 33.5236 1.008 0.12909
2650 140 1 31.9119 38.4207 34.2247 1.008 0.12909
2651 140 1 33.7322 37.2076 35.2821 1.008 0.15086
2652 140 1 32.3556 34.8171 33.9658 1.008 0.07222
2653 140 1 34.0885 34.9644 34.0599 1.008 0.07222
2654 140 1 34.5213 33.0986 35.4023 1.008 0.09202
2655 140 1 33.557 32.8631 36.8574 1.008 0.09202
2656 140 1 32.5186 32.6792 33.9786 1.008 0.10167
2657 140 1 31.4709 32.6627 35.3855 1.008 0.10167
2658 140 1 32.2312 30.4072 34.2914 1.008 0.08773
2659 140 1 33.7809 30.6953 35.0802 1.008 0.08773
2660 140 1 32.3189 30.5154 36.051 1.008 0.08773
2661 141 4 45.8164 42.6859 29.3362 15.999 -0.35515
2662 141 2 45.689 41.6216 28.4221 12.011 0.03297
2663 141 2 45.2386 43.8807 28.8383 12.011 0.01762
2664 141 2 46.0032 44.376 27.6076 12.011 -0.23743
2665 141 2 45.4715 45.7058 27.1158 12.011 -0.24423
2666 141 3 46.199 40.3931 29.1127 12.011 -0.1837
2667 141 3 47.3203 39.7697 28.755 12.011 -0.23415
2668 141 1 47.9115 40.1401 27.9308 1.008 0.12909
2669 141 1 47.6555 38.8722 29.2586 1.008 0.12909
2670 141 1 45.6153 40.0182 29.936 1.008 0.15086
2671 141 1 46.3133 41.7671 27.5456 1.008 0.07222
2672 141 1 44.6578 41.4959 28.0861 1.008 0.07222
2673 141 1 44.1769 43.7252 28.599 1.008 0.09202
2674 141 1 45.2892 44.6323 29.6345 1.008 0.09202
2675 141 1 45.9171 43.6883 26.7712 1.008 0.10167
2676 141 1 47.0645 44.4698 27.8487 1.008 0.10167
2677 141 1 45.7064 45.8728 26.0681 1.008 0.08773
2678 141 1 44.3897 45.7791 27.2495 1.008 0.08773
2679 141 1 45.9542 46.4927 27.6821 1.008 0.08773
2680 142 4 38.1723 16.98 46.7483 15.999 -0.35515
2681 142 2 38.9357 17.5733 47.7804 12.011 0.03297
2682 142 2 37.7185 15.6741 47.0837 12.011 0.01762
2683 142 2 38.8946 14.6915 47.2016 12.011 -0.23743
2684 142 2 38.4388 13.2575 47.4368 12.011 -0.24423
2685 142 3 39.2506 18.9963 47.4035 12.011 -0.1837
2686 142 3 40.4939 19.434 47.1959 12.011 -0.23415
2687 142 1 41.3347 18.7686 47.3004 1.008 0.12909
2688 142 1 40.7013 20.4561 46.9118 1.008 0.12909
2689 142 1 38.4198 19.6752 47.2971 1.008 0.15086
2690 142 1 39.8878 17.0592 47.8902 1.008 0.07222
2691 142 1 38.411 17.5291 48.7372 1.008 0.07222
2692 142 1 37.1277 15.6973 48.0078 1.008 0.09202
2693 142 1 37.0517 15.3371 46.2842 1.008 0.09202
2694 142 1 39.5551 14.9542 48.0259 1.008 0.10167
2695 142 1 39.4919 14.7286 46.2886 1.008 0.10167
2696 142 1 39.2347 12.6664 47.8859 1.008 0.08773
2697 142 1 37.5774 13.2286 48.1061 1.008 0.08773
2698 142 1 38.1519 12.7821 46.4986 1.008 0.08773
2699 143 4 31.6118 46.811 7.23435 15.999 -0.35515
2700 143 2 31.8082 45.6215 7.97033 12.011 0.03297
2701 143 2 32.6305 47.7658 7.48671 12.011 0.01762
2702 143 2 32.5686 48.2512 8.94324 12.011 -0.23743
2703 143 2 33.5703 49.3614 9.22874 12.011 -0.24423
2704 143 3 30.777 44.6337 7.51661 12.011 -0.1837
2705 143 3 29.8121 44.1531 8.29668 12.011 -0.23415
2706 143 1 29.7355 44.4491 9.33251 1.008 0.12909
2707 143 1 29.0812 43.458 7.90655 1.008 0.12909
2708 143 1 30.8423 44.3197 6.49304 1.008 0.15086
2709 143 1 31.6401 45.7793 9.03095 1.008 0.07222
2710 143 1 32.8136 45.2185 7.83047 1.008 0.07222
2711 143 1 33.6157 47.3441 7.25129 1.008 0.09202
2712 143 1 32.4714 48.6126 6.81262 1.008 0.09202
2713 143 1 32.7989 47.4476 9.63956 1.008 0.10167
2714 143 1 31.5565 48.5915 9.1779 1.008 0.10167
2715 143 1 33.7841 49.421 10.2942 1.008 0.08773
2716 143 1 34.5096 49.1709 8.70727 1.008 0.08773
2717 143 1 33.1893 50.3278 8.90007 1.008 0.08773
2718 144 4 17.7254 7.14328 32.8784 15.999 -0.35515
2719 144 2 17.5946 6.97267 31.4802 12.011 0.03297
2720 144 2 17.6062 8.51109 33.2465 12.011 0.01762
2721 144 2 18.8386 9.30382 32.7817 12.011 -0.23743
2722 144 2 18.7991 10.7695 33.2092 12.011 -0.24423
2723 144 3 17.555 5.50488 31.1496 12.011 -0.1837
2724 144 3 18.499 4.89266 30.43 12.011 -0.23415
2725 144 1 19.3479 5.43829 30.0442 1.008 0.12909
2726 144 1 18.4391 3.83633 30.2117 1.008 0.12909
2727 144 1 16.7114 4.9437 31.5123 1.008 0.15086
2728 144 1 18.4393 7.39493 30.938 1.008 0.07222
2729 144 1 16.697 7.48295 31.132 1.008 0.07222
2730 144 1 16.6857 8.94165 32.8381 1.008 0.09202
2731 144 1 17.5451 8.5738 34.3336 1.008 0.09202
2732 144 1 18.9334 9.28926 31.6994 1.008 0.10167
2733 144 1 19.7539 8.82418 33.1459 1.008 0.10167
2734 144 1 19.4 11.3832 32.5397 1.008 0.08773
2735 144 1 17.7761 11.1464 33.1912 1.008 0.08773
2736 144 1 19.1897 10.8797 34.2196 1.008 0.08773
2737 145 4 20.2225 3.85133 2.45489 15.999 -0.35515
2738 145 2 20.6885 3.30855 3.67226 12.011 0.03297
2739 145 2 20.0868 5.26025 2.5333 12.011 0.01762
2740 145 2 18.9816 5.65123 3.51972 12.011 -0.23743
2741 145 2 18.7578 7.1475 3.52772 12.011 -0.24423
2742 145 3 20.9189 1.83946 3.46666 12.011 -0.1837
2743 145 3 20.2133 0.892565 4.08907 12.011 -0.23415
2744 145 1 19.4341 1.14362 4.79271 1.008 0.12909
2745 145 1 20.3946 51.8313 3.89587 1.008 0.12909
2746 145 1 21.6877 1.562 2.76389 1.008 0.15086
2747 145 1 19.9377 3.39919 4.45269 1.008 0.07222
2748 145 1 21.5981 3.80884 4.0122 1.008 0.07222
2749 145 1 21.0362 5.70689 2.84162 1.008 0.09202
2750 145 1 19.8379 5.64752 1.54133 1.008 0.09202
2751 145 1 19.2357 5.38146 4.54506 1.008 0.10167
2752 145 1 18.0434 5.14091 3.27327 1.008 0.10167
2753 145 1 18.3251 7.44741 4.47653 1.008 0.08773
2754 145 1 19.6954 7.68746 3.40319 1.008 0.08773
2755 145 1 18.08 7.44125 2.72666 1.008 0.08773
2756 146 4 27.2134 36.5395 6.86119 15.999 -0.35515
2757 146 2 28.1905 35.6803 7.41218 12.011 0.03297
2758 146 2 27.7982 37.6863 6.25827 12.011 0.01762
2759 146 2 28.4851 38.5353 7.3297 12.011 -0.23743
2760 146 2 29.0253 39.8507 6.79509 12.011 -0.24423
2761 146 3 27.5159 34.4155 7.85219 12.011 -0.1837
2762 146 3 27.5071 33.9977 9.11629 12.011 -0.23415
2763 146 1 27.9892 34.5617 9.89931 1.008 0.12909
2764 146 1 26.9985 33.0871 9.39524 1.008 0.12909
2765 146 1 27.0161 33.8334 7.09561 1.008 0.15086
2766 146 1 28.6469 36.1096 8.30119 1.008 0.07222
2767 146 1 28.9793 35.4671 6.68798 1.008 0.07222
2768 146 1 28.505 37.4031 5.46736 1.008 0.09202
2769 146 1 27.0008 38.2772 5.79528 1.008 0.09202
2770 146 1 29.3232 38.0292 7.80669 1.008 0.10167
2771 146 1 27.7458 38.7345 8.10409 1.008 0.10167
2772 146 1 29.8444 40.2293 7.40058 1.008 0.08773
2773 146 1 29.3992 39.7285 5.77861 1.008 0.08773
2774 146 1 28.2328 40.5948 6.81931 1.008 0.08773
2775 147 4 40.2902 18.963 8.70746 15.999 -0.35515
2776 147 2 39.7961 19.2245 10.0042 12.011 0.03297
2777 147 2 41.2224 17.8898 8.70038 12.011 0.01762
2778 147 2 42.4735 18.2528 9.51703 12.011 -0.23743
2779 147 2 43.5169 17.1692 9.40727 12.011 -0.24423
2780 147 3 38.757 20.3039 9.9007 12.011 -0.1837
2781 147 3 38.8939 21.5084 10.4586 12.011 -0.23415
2782 147 1 39.773 21.7678 11.0303 1.008 0.12909
2783 147 1 38.127 22.2625 10.3562 1.008 0.12909
2784 147 1 37.867 20.0719 9.33923 1.008 0.15086
2785 147 1 40.579 19.6121 10.6511 1.008 0.07222
2786 147 1 39.3898 18.32 10.4629 1.008 0.07222
2787 147 1 40.7607 16.9699 9.08412 1.008 0.09202
2788 147 1 41.5133 17.6884 7.66323 1.008 0.09202
2789 147 1 42.2606 18.3523 10.5786 1.008 0.10167
2790 147 1 42.9024 19.197 9.1856 1.008 0.10167
2791 147 1 44.2443 17.2294 10.2072 1.008 0.08773
2792 147 1 43.004 16.2154 9.5022 1.008 0.08773
2793 147 1 44.0447 17.1902 8.45234 1.008 0.08773
2794 148 4 44.5862 32.0696 44.8853 15.999 -0.35515
2795 148 2 43.512 32.7923 44.3221 12.011 0.03297
2796 148 2 45.5374 31.671 43.9043 12.011 0.01762
2797 148 2 44.9296 30.6552 42.9254 12.011 -0.23743
2798 148 2 45.9539 30.0948 41.9476 12.011 -0.24423
2799 148 3 42.6302 33.2974 45.4311 12.011 -0.1837
2800 148 3 41.3738 32.8884 45.6189 12.011 -0.23415
2801 148 1 40.9177 32.1596 44.9675 1.008 0.12909
2802 148 1 40.7799 33.2708 46.4375 1.008 0.12909
2803 148 1 43.0569 34.0233 46.1041 1.008 0.15086
2804 148 1 42.9026 32.1441 43.7004 1.008 0.07222
2805 148 1 43.8759 33.6131 43.7023 1.008 0.07222
2806 148 1 45.9255 32.5444 43.3648 1.008 0.09202
2807 148 1 46.3826 31.2083 44.4228 1.008 0.09202
2808 148 1 44.1515 31.109 42.3151 1.008 0.10167
2809 148 1 44.463 29.8395 43.4829 1.008 0.10167
2810 148 1 45.4617 29.701 41.0589 1.008 0.08773
2811 148 1 46.6396 30.8765 41.6188 1.008 0.08773
2812 148 1 46.5396 29.2943 42.3985 1.008 0.08773
2813 149 4 45.1382 1.6117 35.9116 15.999 -0.35515
2814 149 2 44.16 2.24784 35.0609 12.011 0.03297
2815 149 2 45.9155 2.60533 36.5132 12.011 0.01762
2816 149 2 46.7605 3.36235 35.4802 12.011 -0.23743
2817 149 2 47.697 4.36202 36.1564 12.011 -0.24423
2818 149 3 43.0415 1.34216 34.6313 12.011 -0.1837
2819 149 3 42.7453 1.22236 33.3226 12.011 -0.23415
2820 149 1 43.3515 1.73755 32.681 1.008 0.12909
2821 149 1 42.0088 52.568 33.0097 1.008 0.12909
2822 149 1 42.5408 0.749408 35.3959 1.008 0.15086
2823 149 1 44.6524 2.62658 34.1314 1.008 0.07222
2824 149 1 43.7066 3.12346 35.5964 1.008 0.07222
2825 149 1 45.2825 3.29921 37.0625 1.008 0.09202
2826 149 1 46.5537 2.11873 37.2195 1.008 0.09202
2827 149 1 46.1663 3.9553 34.7825 1.008 0.10167
2828 149 1 47.3529 2.66997 34.8695 1.008 0.10167
2829 149 1 48.0209 5.14418 35.4565 1.008 0.08773
2830 149 1 47.1872 4.85593 36.9927 1.008 0.08773
2831 149 1 48.5923 3.86399 36.5493 1.008 0.08773
2832 150 4 43.9078 29.1133 33.5426 15.999 -0.35515
2833 150 2 44.9551 30.0187 33.2746 12.011 0.03297
2834 150 2 42.6208 29.7098 33.5363 12.011 0.01762
2835 150 2 42.475 30.7092 34.678 12.011 -0.23743
2836 150 2 41.0663 31.2876 34.763 12.011 -0.24423
2837 150 3 46.2372 29.2363 33.1856 12.011 -0.1837
2838 150 3 47.288 29.4214 33.9902 12.011 -0.23415
2839 150 1 47.2789 30.1766 34.7624 1.008 0.12909
2840 150 1 48.1712 28.8 33.9057 1.008 0.12909
2841 150 1 46.2767 28.4609 32.44 1.008 0.15086
2842 150 1 45.0698 30.7032 34.1072 1.008 0.07222
2843 150 1 44.7689 30.5863 32.3599 1.008 0.07222
2844 150 1 42.4144 30.1833 32.5687 1.008 0.09202
2845 150 1 41.8888 28.911 33.6872 1.008 0.09202
2846 150 1 43.1492 31.5505 34.5506 1.008 0.10167
2847 150 1 42.7581 30.2212 35.6142 1.008 0.10167
2848 150 1 41.0822 32.2498 35.2639 1.008 0.08773
2849 150 1 40.6565 31.4575 33.7663 1.008 0.08773
2850 150 1 40.3987 30.6341 35.3221 1.008 0.08773
2851 151 4 46.6943 4.96629 15.245 15.999 -0.35515
2852 151 2 46.6039 4.73774 13.8534 12.011 0.03297
2853 151 2 46.9544 6.32692 15.5633 12.011 0.01762
2854 151 2 48.3427 6.75844 15.0629 12.011 -0.23743
2855 151 2 48.6914 8.17219 15.5046 12.011 -0.24423
2856 151 3 46.2179 3.30078 13.6298 12.011 -0.1837
2857 151 3 47.0075 2.41079 13.0223 12.011 -0.23415
2858 151 1 47.9827 2.68479 12.6479 1.008 0.12909
2859 151 1 46.6967 1.38307 12.8957 1.008 0.12909
2860 151 1 45.2535 2.98709 13.9948 1.008 0.15086
2861 151 1 47.5683 4.88188 13.373 1.008 0.07222
2862 151 1 45.8844 5.41541 13.3896 1.008 0.07222
2863 151 1 46.1673 6.97082 15.1515 1.008 0.09202
2864 151 1 46.9173 6.42991 16.6525 1.008 0.09202
2865 151 1 48.3924 6.74937 13.9756 1.008 0.10167
2866 151 1 49.104 6.05913 15.4208 1.008 0.10167
2867 151 1 49.4541 8.60346 14.8603 1.008 0.08773
2868 151 1 47.8044 8.80383 15.4576 1.008 0.08773
2869 151 1 49.0595 8.19137 16.53 1.008 0.08773
2870 152 4 9.11676 14.6952 39.1601 15.999 -0.35515
2871 152 2 8.49549 15.6223 38.2933 12.011 0.03297
2872 152 2 10.5246 14.6543 38.9779 12.011 0.01762
2873 152 2 10.8461 14.0002 37.6299 12.011 -0.23743
2874 152 2 12.3382 13.7833 37.4241 12.011 -0.24423
2875 152 3 7.05774 15.7672 38.7068 12.011 -0.1837
2876 152 3 6.0345 15.3483 37.9588 12.011 -0.23415
2877 152 1 6.19788 14.8795 36.9999 1.008 0.12909
2878 152 1 5.01229 15.4584 38.2935 1.008 0.12909
2879 152 1 6.86633 16.231 39.6605 1.008 0.15086
2880 152 1 8.50378 15.2548 37.2695 1.008 0.07222
2881 152 1 9.0034 16.5902 38.3137 1.008 0.07222
2882 152 1 10.9571 15.6618 39.0512 1.008 0.09202
2883 152 1 10.9594 14.0589 39.7871 1.008 0.09202
2884 152 1 10.4955 14.6123 36.8023 1.008 0.10167
2885 152 1 10.3205 13.0449 37.557 1.008 0.10167
2886 152 1 12.5667 13.6735 36.3658 1.008 0.08773
2887 152 1 12.9122 14.6283 37.8076 1.008 0.08773
2888 152 1 12.677 12.8826 37.9366 1.008 0.08773
2889 153 4 45.2801 10.4046 42.1946 15.999 -0.35515
2890 153 2 46.5467 9.93428 42.5931 12.011 0.03297
2891 153 2 45.2965 11.7182 41.6528 12.011 0.01762
2892 153 2 45.7258 12.7628 42.6928 12.011 -0.23743
2893 153 2 45.6372 14.1816 42.1406 12.011 -0.24423
2894 153 3 46.3786 8.52182 43.0883 12.011 -0.1837
2895 153 3 46.6363 8.14096 44.3431 12.011 -0.23415
2896 153 1 46.9999 8.84296 45.0805 1.008 0.12909
2897 153 1 46.4884 7.11709 44.6646 1.008 0.12909
2898 153 1 46.0166 7.79646 42.3759 1.008 0.15086
2899 153 1 46.9359 10.5212 43.4232 1.008 0.07222
2900 153 1 47.2492 9.97992 41.7595 1.008 0.07222
2901 153 1 45.9302 11.7554 40.7593 1.008 0.09202
2902 153 1 44.2803 11.9487 41.3255 1.008 0.09202
2903 153 1 46.76 12.6082 42.9937 1.008 0.10167
2904 153 1 45.1168 12.6794 43.5988 1.008 0.10167
2905 153 1 46.3167 14.8456 42.674 1.008 0.08773
2906 153 1 45.9071 14.1991 41.0818 1.008 0.08773
2907 153 1 44.6267 14.5821 42.2397 1.008 0.08773
2908 154 4 38.7799 6.17165 1.42063 15.999 -0.35515
2909 154 2 38.4853 5.62098 2.68937 12.011 0.03297
2910 154 2 40.174 6.37556 1.22357 12.011 0.01762
2911 154 2 40.714 7.45592 2.17449 12.011 -0.23743
2912 154 2 42.1769 7.78932 1.90633 12.011 -0.24423
2913 154 3 37.0128 5.31954 2.75139 12.011 -0.1837
2914 154 3 36.1685 5.93452 3.58355 12.011 -0.23415
2915 154 1 36.5113 6.69216 4.27224 1.008 0.12909
2916 154 1 35.1132 5.69616 3.58702 1.008 0.12909
2917 154 1 36.6365 4.56849 2.07596 1.008 0.15086
2918 154 1 38.6932 6.33769 3.47955 1.008 0.07222
2919 154 1 39.0779 4.72352 2.87881 1.008 0.07222
2920 154 1 40.7204 5.43231 1.34856 1.008 0.09202
2921 154 1 40.3233 6.69902 0.18853 1.008 0.09202
2922 154 1 40.6532 7.13302 3.21207 1.008 0.10167
2923 154 1 40.1059 8.36045 2.09104 1.008 0.10167
2924 154 1 42.6388 8.23774 2.78388 1.008 0.08773
2925 154 1 42.7373 6.88667 1.65664 1.008 0.08773
2926 154 1 42.2763 8.48696 1.0749 1.008 0.08773
2927 155 4 17.5013 19.4396 4.51735 15.999 -0.35515
2928 155 2 18.2402 18.8511 3.46568 12.011 0.03297
2929 155 2 18.225 20.3767 5.31056 12.011 0.01762
2930 155 2 19.4466 19.7496 6.00959 12.011 -0.23743
2931 155 2 20.1766 20.7682 6.87422 12.011 -0.24423
2932 155 3 17.3317 17.894 2.73053 12.011 -0.1837
2933 155 3 17.578 16.5876 2.58743 12.011 -0.23415
2934 155 1 18.469 16.1303 2.99014 1.008 0.12909
2935 155 1 16.8661 15.9335 2.10049 1.008 0.12909
2936 155 1 16.4108 18.2901 2.33205 1.008 0.15086
2937 155 1 19.068 18.2608 3.85426 1.008 0.07222
2938 155 1 18.6334 19.62 2.80037 1.008 0.07222
2939 155 1 18.516 21.2368 4.69541 1.008 0.09202
2940 155 1 17.5435 20.7588 6.07972 1.008 0.09202
2941 155 1 20.1709 19.3829 5.28719 1.008 0.10167
2942 155 1 19.1564 18.8959 6.62849 1.008 0.10167
2943 155 1 21.2221 20.4891 7.0012 1.008 0.08773
2944 155 1 20.153 21.7626 6.42641 1.008 0.08773
2945 155 1 19.7055 20.8502 7.85316 1.008 0.08773
2946 156 4 27.4853 23.3824 20.2207 15.999 -0.35515
2947 156 2 26.3171 22.6342 20.4767 12.011 0.03297
2948 156 2 27.1992 24.6662 19.6908 12.011 0.01762
2949 156 2 26.5659 24.5376 18.3022 12.011 -0.23743
2950 156 2 26.383 25.8773 17.6114 12.011 -0.24423
2951 156 3 26.7515 21.3482 21.1148 12.011 -0.1837
2952 156 3 26.5124 20.1511 20.5796 12.011 -0.23415
2953 156 1 25.9715 20.0499 19.6471 1.008 0.12909
2954 156 1 26.7859 19.2315 21.0836 1.008 0.12909
2955 156 1 27.2271 21.4185 22.0767 1.008 0.15086
2956 156 1 25.7919 22.3621 19.5642 1.008 0.07222
2957 156 1 25.621 23.1897 21.1101 1.008 0.07222
2958 156 1 26.5412 25.2243 20.3679 1.008 0.09202
2959 156 1 28.1388 25.2189 19.6133 1.008 0.09202
2960 156 1 25.5737 24.113 18.398 1.008 0.10167
2961 156 1 27.1488 23.8586 17.6731 1.008 0.10167
2962 156 1 25.6067 25.8102 16.8508 1.008 0.08773
2963 156 1 26.086 26.6283 18.3422 1.008 0.08773
2964 156 1 27.3056 26.2101 17.1378 1.008 0.08773
2965 157 4 31.9375 30.1044 44.959 15.999 -0.35515
2966 157 2 32.5425 29.3518 43.9312 12.011 0.03297
2967 157 2 31.2462 29.2656 45.8695 12.011 0.01762
2968 157 2 30.0688 28.5593 45.1834 12.011 -0.23743
2969 157 2 29.2057 27.7854 46.1673 12.011 -0.24423
2970 157 3 33.3552 30.247 43.0463 12.011 -0.1837
2971 157 3 33.0883 30.4559 41.7626 12.011 -0.23415
2972 157 1 32.257 29.9706 41.2637 1.008 0.12909
2973 157 1 33.71 31.1127 41.1555 1.008 0.12909
2974 157 1 34.2038 30.7269 43.5035 1.008 0.15086
2975 157 1 31.8052 28.8853 43.277 1.008 0.07222
2976 157 1 33.164 28.5671 44.3615 1.008 0.07222
2977 157 1 31.944 28.5412 46.3012 1.008 0.09202
2978 157 1 30.8697 29.8861 46.687 1.008 0.09202
2979 157 1 30.4042 27.8413 44.4352 1.008 0.10167
2980 157 1 29.4606 29.3014 44.6624 1.008 0.10167
2981 157 1 28.6188 27.0282 45.6483 1.008 0.08773
2982 157 1 29.8315 27.2837 46.9091 1.008 0.08773
2983 157 1 28.5242 28.4588 46.6876 1.008 0.08773
2984 158 4 27.5426 42.5578 14.0288 15.999 -0.35515
2985 158 2 28.7707 41.9947 14.4372 12.011 0.03297
2986 158 2 27.0938 43.5445 14.9361 12.011 0.01762
2987 158 2 26.8005 42.9275 16.3101 12.011 -0.23743
2988 158 2 26.2366 43.9549 17.2793 12.011 -0.24423
2989 158 3 29.3114 41.138 13.3265 12.011 -0.1837
2990 158 3 29.6103 39.8517 13.4903 12.011 -0.23415
2991 158 1 29.4787 39.3989 14.4467 1.008 0.12909
2992 158 1 29.9447 39.2303 12.6797 1.008 0.12909
2993 158 1 29.4086 41.5955 12.3453 1.008 0.15086
2994 158 1 28.6516 41.3417 15.2911 1.008 0.07222
2995 158 1 29.4941 42.7613 14.7011 1.008 0.07222
2996 158 1 27.8407 44.3451 15.0127 1.008 0.09202
2997 158 1 26.1767 43.9776 14.5271 1.008 0.09202
2998 158 1 27.7064 42.5349 16.768 1.008 0.10167
2999 158 1 26.113 42.0822 16.1995 1.008 0.10167
3000 158 1 26.3765 43.6167 18.3032 1.008 0.08773
3001 158 1 26.7357 44.9182 17.1573 1.008 0.08773
3002 158 1 25.1718 44.1026 17.1117 1.008 0.08773
3003 159 4 45.6725 31.9798 38.9303 15.999 -0.35515
3004 159 2 44.4214 32.6488 38.8627 12.011 0.03297
3005 159 2 46.7109 32.8985 39.1992 12.011 0.01762
3006 159 2 46.9134 33.7803 37.9692 12.011 -0.23743
3007 159 2 48.159 34.6401 38.0595 12.011 -0.24423
3008 159 3 43.3506 31.6283 38.7536 12.011 -0.1837
3009 159 3 42.4876 31.6186 37.7489 12.011 -0.23415
3010 159 1 42.5577 32.3313 36.935 1.008 0.12909
3011 159 1 41.6634 30.9197 37.7288 1.008 0.12909
3012 159 1 43.2217 30.9642 39.5719 1.008 0.15086
3013 159 1 44.3243 33.3187 37.994 1.008 0.07222
3014 159 1 44.277 33.2542 39.7592 1.008 0.07222
3015 159 1 46.4732 33.488 40.0888 1.008 0.09202
3016 159 1 47.6134 32.326 39.4011 1.008 0.09202
3017 159 1 46.0778 34.4598 37.8308 1.008 0.10167
3018 159 1 46.9793 33.1475 37.0805 1.008 0.10167
3019 159 1 48.0927 35.4878 37.3758 1.008 0.08773
3020 159 1 48.285 35.0218 39.0761 1.008 0.08773
3021 159 1 49.0409 34.0504 37.7965 1.008 0.08773
3022 160 4 32.8818 23.3681 25.3497 15.999 -0.35515
3023 160 2 32.3922 22.3845 26.2392 12.011 0.03297
3024 160 2 32.4499 23.1614 24.0114 12.011 0.01762
3025 160 2 33.034 21.8514 23.4646 12.011 -0.23743
3026 160 2 32.775 21.6596 21.9706 12.011 -0.24423
3027 160 3 32.7663 22.7723 27.6442 12.011 -0.1837
3028 160 3 33.5884 22.0541 28.4132 12.011 -0.23415
3029 160 1 34.0366 21.1379 28.0593 1.008 0.12909
3030 160 1 33.8379 22.3784 29.4139 1.008 0.12909
3031 160 1 32.3472 23.6887 28.028 1.008 0.15086
3032 160 1 32.8581 21.4209 26.0454 1.008 0.07222
3033 160 1 31.311 22.2702 26.1347 1.008 0.07222
3034 160 1 31.3563 23.1548 23.9432 1.008 0.09202
3035 160 1 32.8139 23.9976 23.4079 1.008 0.09202
3036 160 1 32.6173 20.9794 23.9688 1.008 0.10167
3037 160 1 34.1015 21.8342 23.686 1.008 0.10167
3038 160 1 32.897 20.6151 21.6889 1.008 0.08773
3039 160 1 31.7545 21.957 21.7265 1.008 0.08773
3040 160 1 33.4542 22.2559 21.3622 1.008 0.08773
3041 161 4 4.18827 28.8638 4.33594 15.999 -0.35515
3042 161 2 5.50056 28.4312 4.05925 12.011 0.03297
3043 161 2 3.20453 27.8392 4.2949 12.011 0.01762
3044 161 2 3.03305 27.3055 2.86872 12.011 -0.23743
3045 161 2 1.91721 26.2682 2.7788 12.011 -0.24423
3046 161 3 6.43122 29.6001 4.27927 12.011 -0.1837
3047 161 3 7.21784 30.1199 3.33123 12.011 -0.23415
3048 161 1 7.21795 29.7259 2.32657 1.008 0.12909
3049 161 1 7.83312 30.9856 3.53446 1.008 0.12909
3050 161 1 6.42065 30.0635 5.25657 1.008 0.15086
3051 161 1 5.59285 28.1332 3.01795 1.008 0.07222
3052 161 1 5.77545 27.5915 4.69933 1.008 0.07222
3053 161 1 3.45088 27.0364 5.00192 1.008 0.09202
3054 161 1 2.2497 28.2725 4.61578 1.008 0.09202
3055 161 1 3.94747 26.8289 2.52054 1.008 0.10167
3056 161 1 2.82613 28.1341 2.18544 1.008 0.10167
3057 161 1 2.05699 25.6238 1.91165 1.008 0.08773
3058 161 1 1.90414 25.6349 3.66945 1.008 0.08773
3059 161 1 0.936406 26.7419 2.69435 1.008 0.08773
3060 162 4 47.8717 16.7407 11.2343 15.999 -0.35515
3061 162 2 48.886 15.9013 11.7458 12.011 0.03297
3062 162 2 46.6326 16.5722 11.9104 12.011 0.01762
3063 162 2 46.0435 15.1744 11.6558 12.011 -0.23743
3064 162 2 44.668 14.9888 12.2833 12.011 -0.24423
3065 162 3 50.1791 16.2534 11.0691 12.011 -0.1837
3066 162 3 50.8452 15.4104 10.2781 12.011 -0.23415
3067 162 1 50.4764 14.4142 10.0862 1.008 0.12909
3068 162 1 51.7687 15.7039 9.79788 1.008 0.12909
3069 162 1 50.5686 17.2439 11.2419 1.008 0.15086
3070 162 1 48.6768 14.8578 11.5243 1.008 0.07222
3071 162 1 48.9885 16.0086 12.8252 1.008 0.07222
3072 162 1 46.7599 16.7505 12.9833 1.008 0.09202
3073 162 1 45.948 17.3425 11.5457 1.008 0.09202
3074 162 1 46.678 14.4094 12.0933 1.008 0.10167
3075 162 1 45.9909 14.9716 10.5815 1.008 0.10167
3076 162 1 44.4696 13.9385 12.474 1.008 0.08773
3077 162 1 44.6107 15.5074 13.2381 1.008 0.08773
3078 162 1 43.8772 15.3666 11.6364 1.008 0.08773
3079 163 4 38.3549 32.4553 3.27204 15.999 -0.35515
3080 163 2 37.9675 31.8423 4.48234 12.011 0.03297
3081 163 2 37.9494 31.6965 2.13893 12.011 0.01762
3082 163 2 38.6779 30.3434 2.0696 12.011 -0.23743
3083 163 2 38.3692 29.5812 0.785034 12.011 -0.24423
3084 163 3 38.3076 32.728 5.64968 12.011 -0.1837
3085 163 3 39.1927 32.3928 6.59135 12.011 -0.23415
3086 163 1 39.7145 31.4471 6.56129 1.008 0.12909
3087 163 1 39.4239 33.0627 7.40874 1.008 0.12909
3088 163 1 37.8007 33.6772 5.71096 1.008 0.15086
3089 163 1 38.5352 30.9288 4.62382 1.008 0.07222
3090 163 1 36.9041 31.5934 4.47495 1.008 0.07222
3091 163 1 36.8617 31.5511 2.14884 1.008 0.09202
3092 163 1 38.1917 32.2814 1.24691 1.008 0.09202
3093 163 1 38.3828 29.6952 2.89246 1.008 0.10167
3094 163 1 39.7571 30.4948 2.16112 1.008 0.10167
3095 163 1 38.569 28.5178 0.908483 1.008 0.08773
3096 163 1 37.3192 29.6958 0.509611 1.008 0.08773
3097 163 1 38.9774 29.9439 -0.0437773 1.008 0.08773
3098 164 4 8.8063 44.812 17.2185 15.999 -0.35515
3099 164 2 8.52492 44.9476 15.8353 12.011 0.03297
3100 164 2 8.37841 45.9251 17.9955 12.011 0.01762
3101 164 2 9.15487 47.2072 17.6544 12.011 -0.23743
3102 164 2 8.78873 48.379 18.5556 12.011 -0.24423
3103 164 3 8.94697 43.6803 15.1347 12.011 -0.1837
3104 164 3 9.89641 43.6217 14.1972 12.011 -0.23415
3105 164 1 10.4254 44.5013 13.8633 1.008 0.12909
3106 164 1 10.1873 42.6793 13.7514 1.008 0.12909
3107 164 1 8.45796 42.7665 15.4284 1.008 0.15086
3108 164 1 9.10307 45.7554 15.3952 1.008 0.07222
3109 164 1 7.46914 45.1647 15.6667 1.008 0.07222
3110 164 1 7.30056 46.0773 17.8682 1.008 0.09202
3111 164 1 8.54938 45.6824 19.0468 1.008 0.09202
3112 164 1 8.94825 47.5206 16.634 1.008 0.10167
3113 164 1 10.2299 47.0345 17.7316 1.008 0.10167
3114 164 1 9.03902 49.324 18.0757 1.008 0.08773
3115 164 1 7.7189 48.3801 18.7713 1.008 0.08773
3116 164 1 9.32807 48.3267 19.5021 1.008 0.08773
3117 165 4 18.0037 24.5836 46.7757 15.999 -0.35515
3118 165 2 17.3556 25.7765 46.3946 12.011 0.03297
3119 165 2 18.7104 24.7373 47.9937 12.011 0.01762
3120 165 2 19.8986 25.688 47.798 12.011 -0.23743
3121 165 2 20.7889 25.7355 49.0298 12.011 -0.24423
3122 165 3 16.5161 25.4979 45.1777 12.011 -0.1837
3123 165 3 16.6605 26.1446 44.0214 12.011 -0.23415
3124 165 1 17.4153 26.9048 43.8977 1.008 0.12909
3125 165 1 16.0151 25.9432 43.1778 1.008 0.12909
3126 165 1 15.727 24.7701 45.2838 1.008 0.15086
3127 165 1 18.0648 26.5483 46.1109 1.008 0.07222
3128 165 1 16.7492 26.1721 47.213 1.008 0.07222
3129 165 1 18.0438 25.0912 48.7913 1.008 0.09202
3130 165 1 19.0776 23.7514 48.2921 1.008 0.09202
3131 165 1 19.5642 26.7073 47.6127 1.008 0.10167
3132 165 1 20.4752 25.3778 46.9227 1.008 0.10167
3133 165 1 21.3404 26.6697 49.0665 1.008 0.08773
3134 165 1 20.1915 25.6818 49.9402 1.008 0.08773
3135 165 1 21.4955 24.9057 49.036 1.008 0.08773
3136 166 4 3.48983 8.06396 4.42381 15.999 -0.35515
3137 166 2 4.80501 8.50783 4.6891 12.011 0.03297
3138 166 2 3.0391 7.0965 5.36316 12.011 0.01762
3139 166 2 3.85275 5.79868 5.2477 12.011 -0.23743
3140 166 2 3.31354 4.69421 6.14786 12.011 -0.24423
3141 166 3 5.13489 9.60813 3.719 12.011 -0.1837
3142 166 3 6.11224 9.52935 2.81352 12.011 -0.23415
3143 166 1 6.72714 8.64634 2.72729 1.008 0.12909
3144 166 1 6.31281 10.3484 2.13661 1.008 0.12909
3145 166 1 4.54003 10.5044 3.77793 1.008 0.15086
3146 166 1 5.52869 7.71305 4.52457 1.008 0.07222
3147 166 1 4.90497 8.84926 5.72224 1.008 0.07222
3148 166 1 3.08364 7.498 6.38313 1.008 0.09202
3149 166 1 1.98837 6.88383 5.14461 1.008 0.09202
3150 166 1 4.89008 5.95385 5.53766 1.008 0.10167
3151 166 1 3.86445 5.45893 4.20842 1.008 0.10167
3152 166 1 4.08192 3.94966 6.34685 1.008 0.08773
3153 166 1 2.98636 5.1031 7.10514 1.008 0.08773
3154 166 1 2.46404 4.19074 5.68694 1.008 0.08773
3155 167 4 46.9578 49.7288 33.4906 15.999 -0.35515
3156 167 2 45.9645 49.4761 32.5571 12.011 0.03297
3157 167 2 47.6892 48.5276 33.6702 12.011 0.01762
3158 167 2 46.7884 47.4324 34.2872 12.011 -0.23743
3159 167 2 47.5923 46.1921 34.6306 12.011 -0.24423
3160 167 3 45.2448 50.6825 31.9925 12.011 -0.1837
3161 167 3 44.0026 50.8081 31.9723 12.011 -0.23415
3162 167 1 43.3598 50.1044 32.4843 1.008 0.12909
3163 167 1 43.4454 51.5997 31.4432 1.008 0.12909
3164 167 1 45.9013 51.4454 31.4942 1.008 0.15086
3165 167 1 45.1748 48.9038 32.9689 1.008 0.07222
3166 167 1 46.3902 48.9388 31.7332 1.008 0.07222
3167 167 1 48.0892 48.1796 32.7087 1.008 0.09202
3168 167 1 48.5602 48.6901 34.3124 1.008 0.09202
3169 167 1 46.0128 47.082 33.5997 1.008 0.10167
3170 167 1 46.2852 47.8286 35.1807 1.008 0.10167
3171 167 1 46.9388 45.3341 34.7588 1.008 0.08773
3172 167 1 48.2953 45.9733 33.8308 1.008 0.08773
3173 167 1 48.1436 46.3647 35.5457 1.008 0.08773
3174 168 4 41.3688 32.8984 40.1453 15.999 -0.35515
3175 168 2 41.2963 34.0698 40.9375 12.011 0.03297
3176 168 2 40.5191 31.817 40.5413 12.011 0.01762
3177 168 2 40.8068 31.2691 41.9484 12.011 -0.23743
3178 168 2 39.8367 30.1529 42.3368 12.011 -0.24423
3179 168 3 42.2705 35.0447 40.3285 12.011 -0.1837
3180 168 3 43.3654 35.485 40.9494 12.011 -0.23415
3181 168 1 43.6099 35.1735 41.955 1.008 0.12909
3182 168 1 44.0808 36.1255 40.4493 1.008 0.12909
3183 168 1 42.0975 35.3347 39.3103 1.008 0.15086
3184 168 1 41.6228 33.8547 41.9679 1.008 0.07222
3185 168 1 40.2817 34.4883 40.9243 1.008 0.07222
3186 168 1 39.494 32.1774 40.4594 1.008 0.09202
3187 168 1 40.6069 31.0131 39.7893 1.008 0.09202
3188 168 1 40.6709 32.0649 42.6621 1.008 0.10167
3189 168 1 41.831 30.9206 41.9986 1.008 0.10167
3190 168 1 39.709 30.1252 43.4212 1.008 0.08773
3191 168 1 38.8414 30.3139 41.8901 1.008 0.08773
3192 168 1 40.1847 29.1661 42.0098 1.008 0.08773
3193 169 4 33.9251 41.7811 46.2459 15.999 -0.35515
3194 169 2 34.4791 41.8332 47.5449 12.011 0.03297
3195 169 2 33.6059 43.0719 45.7423 12.011 0.01762
3196 169 2 32.4634 43.7261 46.5409 12.011 -0.23743
3197 169 2 31.9978 45.0437 45.929 12.011 -0.24423
3198 169 3 34.9194 40.4522 47.9526 12.011 -0.1837
3199 169 3 34.3251 39.7364 48.9101 12.011 -0.23415
3200 169 1 33.4727 40.1218 49.449 1.008 0.12909
3201 169 1 34.6765 38.7485 49.1771 1.008 0.12909
3202 169 1 35.7704 40.0399 47.4364 1.008 0.15086
3203 169 1 33.7294 42.1575 48.2624 1.008 0.07222
3204 169 1 35.3166 42.5325 47.5933 1.008 0.07222
3205 169 1 34.4998 43.7085 45.7402 1.008 0.09202
3206 169 1 33.2926 42.9544 44.7018 1.008 0.09202
3207 169 1 32.7633 43.9315 47.5667 1.008 0.10167
3208 169 1 31.6165 43.0447 46.6084 1.008 0.10167
3209 169 1 31.4991 45.6617 46.6738 1.008 0.08773
3210 169 1 32.8445 45.6084 45.5359 1.008 0.08773
3211 169 1 31.3017 44.8688 45.109 1.008 0.08773
3212 170 4 25.9728 5.72075 33.2427 15.999 -0.35515
3213 170 2 27.062 5.0928 32.6065 12.011 0.03297
3214 170 2 24.872 4.83237 33.3856 12.011 0.01762
3215 170 2 24.2795 4.46377 32.0155 12.011 -0.23743
3216 170 2 23.0026 3.64337 32.1391 12.011 -0.24423
3217 170 3 28.2524 6.01353 32.6231 12.011 -0.1837
3218 170 3 28.7914 6.52414 31.5167 12.011 -0.23415
3219 170 1 28.3832 6.28591 30.5469 1.008 0.12909
3220 170 1 29.6448 7.18774 31.556 1.008 0.12909
3221 170 1 28.679 6.25574 33.5818 1.008 0.15086
3222 170 1 26.8304 4.89511 31.5625 1.008 0.07222
3223 170 1 27.2859 4.13872 33.0867 1.008 0.07222
3224 170 1 25.1719 3.93265 33.9387 1.008 0.09202
3225 170 1 24.1105 5.33858 33.986 1.008 0.09202
3226 170 1 24.9752 3.86936 31.4255 1.008 0.10167
3227 170 1 24.0784 5.37534 31.4469 1.008 0.10167
3228 170 1 22.805 3.09327 31.2211 1.008 0.08773
3229 170 1 23.0875 2.91935 32.9518 1.008 0.08773
3230 170 1 22.1438 4.28296 32.3439 1.008 0.08773
3231 171 4 9.63727 18.1102 41.7035 15.999 -0.35515
3232 171 2 9.47694 18.9318 42.8396 12.011 0.03297
3233 171 2 9.28173 16.7593 41.9483 12.011 0.01762
3234 171 2 10.1725 16.1071 43.0178 12.011 -0.23743
3235 171 2 9.83064 14.6326 43.2016 12.011 -0.24423
3236 171 3 9.82319 20.3407 42.4593 12.011 -0.1837
3237 171 3 10.8349 21.0341 42.9862 12.011 -0.23415
3238 171 1 11.4794 20.6134 43.7421 1.008 0.12909
3239 171 1 11.058 22.0422 42.6599 1.008 0.12909
3240 171 1 9.2017 20.7844 41.7026 1.008 0.15086
3241 171 1 10.164 18.6552 43.6333 1.008 0.07222
3242 171 1 8.45515 18.8772 43.2161 1.008 0.07222
3243 171 1 8.21756 16.6894 42.2092 1.008 0.09202
3244 171 1 9.41645 16.2218 41.0087 1.008 0.09202
3245 171 1 10.0377 16.5769 43.9896 1.008 0.10167
3246 171 1 11.2259 16.2214 42.7491 1.008 0.10167
3247 171 1 10.137 14.2815 44.1873 1.008 0.08773
3248 171 1 8.75161 14.4755 43.1069 1.008 0.08773
3249 171 1 10.3228 14.0177 42.4454 1.008 0.08773
3250 172 4 43.2913 1.51213 44.5611 15.999 -0.35515
3251 172 2 44.2514 2.47885 44.1866 12.011 0.03297
3252 172 2 43.0263 1.51993 45.959 12.011 0.01762
3253 172 2 44.2657 1.09758 46.7634 12.011 -0.23743
3254 172 2 43.9859 0.991518 48.2582 12.011 -0.24423
3255 172 3 44.3632 2.49209 42.686 12.011 -0.1837
3256 172 3 45.4762 2.1513 42.0319 12.011 -0.23415
3257 172 1 46.3704 1.85654 42.5604 1.008 0.12909
3258 172 1 45.5126 2.14648 40.9507 1.008 0.12909
3259 172 1 43.4882 2.77606 42.1235 1.008 0.15086
3260 172 1 45.2311 2.2153 44.5702 1.008 0.07222
3261 172 1 44.0017 3.46186 44.585 1.008 0.07222
3262 172 1 42.6724 2.50878 46.276 1.008 0.09202
3263 172 1 42.216 0.810091 46.1491 1.008 0.09202
3264 172 1 45.0686 1.82103 46.6537 1.008 0.10167
3265 172 1 44.6504 0.146557 46.3844 1.008 0.10167
3266 172 1 44.9063 1.08117 48.8326 1.008 0.08773
3267 172 1 43.3109 1.786 48.582 1.008 0.08773
3268 172 1 43.5237 0.0358529 48.5054 1.008 0.08773
3269 173 4 12.7772 21.973 3.06557 15.999 -0.35515
3270 173 2 12.0113 22.9233 2.35379 12.011 0.03297
3271 173 2 11.952 20.9234 3.56101 12.011 0.01762
3272 173 2 10.998 21.4439 4.65463 12.011 -0.23743
3273 173 2 10.2147 20.325 5.33406 12.011 -0.24423
3274 173 3 12.905 23.9294 1.68701 12.011 -0.1837
3275 173 3 12.8936 25.2293 1.98883 12.011 -0.23415
3276 173 1 12.2377 25.6223 2.74748 1.008 0.12909
3277 173 1 13.5836 25.9182 1.52427 1.008 0.12909
3278 173 1 13.6067 23.5547 0.955767 1.008 0.15086
3279 173 1 11.3768 23.4784 3.03478 1.008 0.07222
3280 173 1 11.3768 22.4369 1.61252 1.008 0.07222
3281 173 1 11.387 20.4639 2.74064 1.008 0.09202
3282 173 1 12.5952 20.1361 3.96237 1.008 0.09202
3283 173 1 10.254 22.1116 4.22706 1.008 0.10167
3284 173 1 11.5457 22.0248 5.40239 1.008 0.10167
3285 173 1 9.28754 20.6987 5.76757 1.008 0.08773
3286 173 1 9.9614 19.5572 4.60548 1.008 0.08773
3287 173 1 10.7825 19.8432 6.13063 1.008 0.08773
3288 174 4 20.2597 17.809 14.6974 15.999 -0.35515
3289 174 2 19.6862 18.8661 13.9522 12.011 0.03297
3290 174 2 21.2118 17.0661 13.9454 12.011 0.01762
3291 174 2 20.5304 16.3103 12.8001 12.011 -0.23743
3292 174 2 21.4874 15.3962 12.0439 12.011 -0.24423
3293 174 3 18.8309 19.6904 14.8729 12.011 -0.1837
3294 174 3 17.5144 19.8223 14.7063 12.011 -0.23415
3295 174 1 17.0268 19.3446 13.8726 1.008 0.12909
3296 174 1 16.9047 20.3942 15.392 1.008 0.12909
3297 174 1 19.3187 20.1779 15.7011 1.008 0.15086
3298 174 1 19.0363 18.4829 13.1686 1.008 0.07222
3299 174 1 20.4495 19.4813 13.4767 1.008 0.07222
3300 174 1 22.0033 17.7229 13.5637 1.008 0.09202
3301 174 1 21.6889 16.3478 14.6144 1.008 0.09202
3302 174 1 20.1346 17.0163 12.0787 1.008 0.10167
3303 174 1 19.681 15.7378 13.1813 1.008 0.10167
3304 174 1 21.1157 15.1871 11.0423 1.008 0.08773
3305 174 1 22.4693 15.8635 11.9469 1.008 0.08773
3306 174 1 21.6211 14.4479 12.5651 1.008 0.08773
3307 175 4 44.6716 18.7184 28.3752 15.999 -0.35515
3308 175 2 43.8926 18.6109 27.2007 12.011 0.03297
3309 175 2 45.8526 17.9314 28.3128 12.011 0.01762
3310 175 2 45.5211 16.4362 28.2524 12.011 -0.23743
3311 175 2 46.7785 15.6002 28.3161 12.011 -0.24423
3312 175 3 42.7362 19.5673 27.2921 12.011 -0.1837
3313 175 3 41.4603 19.1845 27.3753 12.011 -0.23415
3314 175 1 41.1838 18.1416 27.3884 1.008 0.12909
3315 175 1 40.652 19.9024 27.4408 1.008 0.12909
3316 175 1 42.9722 20.6176 27.2855 1.008 0.15086
3317 175 1 43.4768 17.6114 27.1084 1.008 0.07222
3318 175 1 44.4819 18.8215 26.3068 1.008 0.07222
3319 175 1 46.4742 18.2265 27.4585 1.008 0.09202
3320 175 1 46.4368 18.1278 29.2167 1.008 0.09202
3321 175 1 45.0109 16.157 27.3324 1.008 0.10167
3322 175 1 44.8661 16.1564 29.0817 1.008 0.10167
3323 175 1 46.5796 14.6078 27.9185 1.008 0.08773
3324 175 1 47.5924 16.041 27.7381 1.008 0.08773
3325 175 1 47.1025 15.5201 29.3528 1.008 0.08773
3326 176 4 15.3303 17.0396 7.15757 15.999 -0.35515
3327 176 2 15.6089 18.4262 7.12896 12.011 0.03297
3328 176 2 16.5291 16.2554 7.12936 12.011 0.01762
3329 176 2 17.3342 16.3745 5.84524 12.011 -0.23743
3330 176 2 18.5774 15.4844 5.86625 12.011 -0.24423
3331 176 3 14.343 19.229 7.25474 12.011 -0.1837
3332 176 3 13.9238 20.0666 6.30811 12.011 -0.23415
3333 176 1 14.4822 20.2097 5.39356 1.008 0.12909
3334 176 1 12.9917 20.5976 6.41577 1.008 0.12909
3335 176 1 13.738 19.1055 8.13923 1.008 0.15086
3336 176 1 16.0222 18.681 6.1657 1.008 0.07222
3337 176 1 16.3277 18.7291 7.88874 1.008 0.07222
3338 176 1 17.2165 16.5696 7.90743 1.008 0.09202
3339 176 1 16.2854 15.2093 7.33484 1.008 0.09202
3340 176 1 17.6904 17.3912 5.75291 1.008 0.10167
3341 176 1 16.6947 16.1773 4.98706 1.008 0.10167
3342 176 1 19.3393 15.8809 5.1932 1.008 0.08773
3343 176 1 19.01 15.4553 6.87379 1.008 0.08773
3344 176 1 18.3423 14.4582 5.56535 1.008 0.08773
3345 177 4 9.10759 47.5957 40.2371 15.999 -0.35515
3346 177 2 9.92488 47.6308 41.3883 12.011 0.03297
3347 177 2 9.57775 46.6946 39.2478 12.011 0.01762
3348 177 2 10.8578 47.2626 38.63 12.011 -0.23743
3349 177 2 11.366 46.427 37.4641 12.011 -0.24423
3350 177 3 9.2119 48.4351 42.4391 12.011 -0.1837
3351 177 3 9.6487 49.6093 42.9007 12.011 -0.23415
3352 177 1 10.5577 50.0552 42.5262 1.008 0.12909
3353 177 1 9.08756 50.1599 43.645 1.008 0.12909
3354 177 1 8.28495 48.033 42.8082 1.008 0.15086
3355 177 1 10.8659 48.1336 41.1782 1.008 0.07222
3356 177 1 10.1426 46.6238 41.7531 1.008 0.07222
3357 177 1 9.7398 45.6935 39.6701 1.008 0.09202
3358 177 1 8.80454 46.5973 38.4772 1.008 0.09202
3359 177 1 11.6566 47.3024 39.3659 1.008 0.10167
3360 177 1 10.677 48.2892 38.3039 1.008 0.10167
3361 177 1 12.4255 46.6104 37.2977 1.008 0.08773
3362 177 1 11.2356 45.3612 37.6636 1.008 0.08773
3363 177 1 10.8301 46.6658 36.5451 1.008 0.08773
3364 178 4 41.8491 11.9433 10.7367 15.999 -0.35515
3365 178 2 41.3837 12.5177 11.9403 12.011 0.03297
3366 178 2 42.7527 10.856 10.8803 12.011 0.01762
3367 178 2 44.0287 11.2542 11.6334 12.011 -0.23743
3368 178 2 44.9994 10.0868 11.7432 12.011 -0.24423
3369 178 3 40.4493 13.6457 11.5743 12.011 -0.1837
3370 178 3 40.6537 14.9227 11.9177 12.011 -0.23415
3371 178 1 41.5109 15.219 12.5086 1.008 0.12909
3372 178 1 39.9635 15.7034 11.6138 1.008 0.12909
3373 178 1 39.5759 13.3989 10.9906 1.008 0.15086
3374 178 1 42.198 12.9589 12.5161 1.008 0.07222
3375 178 1 40.8791 11.7694 12.5539 1.008 0.07222
3376 178 1 42.2465 10.0145 11.3662 1.008 0.09202
3377 178 1 43.0336 10.5254 9.87241 1.008 0.09202
3378 178 1 43.8025 11.5663 12.6507 1.008 0.10167
3379 178 1 44.5179 12.0953 11.1333 1.008 0.10167
3380 178 1 45.6395 10.214 12.6156 1.008 0.08773
3381 178 1 44.4591 9.14194 11.8577 1.008 0.08773
3382 178 1 45.6282 10.0162 10.8519 1.008 0.08773
3383 179 4 46.3063 41.8373 35.8344 15.999 -0.35515
3384 179 2 45.2619 41.2135 36.5485 12.011 0.03297
3385 179 2 46.9505 40.9238 34.9525 12.011 0.01762
3386 179 2 47.6822 39.7989 35.7152 12.011 -0.23743
3387 179 2 48.4809 38.8971 34.7833 12.011 -0.24423
3388 179 3 44.4856 42.1738 37.4066 12.011 -0.1837
3389 179 3 44.4494 42.1166 38.7397 12.011 -0.23415
3390 179 1 45.0014 41.3719 39.2952 1.008 0.12909
3391 179 1 43.9164 42.8644 39.3177 1.008 0.12909
3392 179 1 43.9621 42.9665 36.9033 1.008 0.15086
3393 179 1 45.6742 40.4746 37.2316 1.008 0.07222
3394 179 1 44.5866 40.72 35.8511 1.008 0.07222
3395 179 1 46.217 40.5069 34.2505 1.008 0.09202
3396 179 1 47.6783 41.4907 34.3631 1.008 0.09202
3397 179 1 46.989 39.1527 36.2493 1.008 0.10167
3398 179 1 48.3426 40.2206 36.4778 1.008 0.10167
3399 179 1 48.6689 37.9292 35.2465 1.008 0.08773
3400 179 1 47.9354 38.7309 33.852 1.008 0.08773
3401 179 1 49.4412 39.3524 34.5381 1.008 0.08773
3402 180 4 43.3971 15.0656 45.8107 15.999 -0.35515
3403 180 2 42.4094 16.0748 45.7283 12.011 0.03297
3404 180 2 43.0599 14.0424 46.7403 12.011 0.01762
3405 180 2 43.0377 14.5823 48.1793 12.011 -0.23743
3406 180 2 42.813 13.4823 49.2105 12.011 -0.24423
3407 180 3 42.7772 17.0258 44.6218 12.011 -0.1837
3408 180 3 43.0808 18.3092 44.826 12.011 -0.23415
3409 180 1 43.0703 18.7188 45.8191 1.008 0.12909
3410 180 1 43.3456 18.9734 44.0143 1.008 0.12909
3411 180 1 42.7867 16.6345 43.6188 1.008 0.15086
3412 180 1 42.3682 16.6478 46.6522 1.008 0.07222
3413 180 1 41.4209 15.6506 45.5472 1.008 0.07222
3414 180 1 42.098 13.5847 46.4777 1.008 0.09202
3415 180 1 43.821 13.2602 46.6623 1.008 0.09202
3416 180 1 42.2372 15.3064 48.3154 1.008 0.10167
3417 180 1 43.9744 15.1035 48.3955 1.008 0.10167
3418 180 1 42.4291 13.8974 50.1411 1.008 0.08773
3419 180 1 42.0902 12.7513 48.8447 1.008 0.08773
3420 180 1 43.7421 12.9575 49.4344 1.008 0.08773
3421 181 4 38.1722 18.5462 28.1687 15.999 -0.35515
3422 181 2 37.0291 19.3056 27.8255 12.011 0.03297
3423 181 2 37.8636 17.3702 28.9095 12.011 0.01762
3424 181 2 37.2472 17.7049 30.2745 12.011 -0.23743
3425 181 2 37.0079 16.4583 31.1185 12.011 -0.24423
3426 181 3 37.4538 20.446 26.9432 12.011 -0.1837
3427 181 3 37.3131 21.7286 27.294 12.011 -0.23415
3428 181 1 36.8744 22.0063 28.2403 1.008 0.12909
3429 181 1 37.6407 22.5279 26.6446 1.008 0.12909
3430 181 1 37.8952 20.202 25.9903 1.008 0.15086
3431 181 1 36.5715 19.7393 28.7107 1.008 0.07222
3432 181 1 36.2755 18.6952 27.3283 1.008 0.07222
3433 181 1 37.1878 16.7184 28.3444 1.008 0.09202
3434 181 1 38.7961 16.8165 29.0572 1.008 0.09202
3435 181 1 36.2823 18.193 30.1587 1.008 0.10167
3436 181 1 37.8917 18.4032 30.8143 1.008 0.10167
3437 181 1 36.2545 16.6466 31.8811 1.008 0.08773
3438 181 1 36.6575 15.632 30.497 1.008 0.08773
3439 181 1 37.9238 16.1397 31.617 1.008 0.08773
3440 182 4 16.2822 7.4121 39.676 15.999 -0.35515
3441 182 2 16.0761 6.72391 38.4579 12.011 0.03297
3442 182 2 17.3624 8.33624 39.6071 12.011 0.01762
3443 182 2 18.7066 7.61737 39.4079 12.011 -0.23743
3444 182 2 19.8913 8.57635 39.4498 12.011 -0.24423
3445 182 3 14.8475 5.86428 38.5922 12.011 -0.1837
3446 182 3 14.8713 4.5315 38.5391 12.011 -0.23415
3447 182 1 15.7942 3.99124 38.3881 1.008 0.12909
3448 182 1 13.9657 3.95141 38.6555 1.008 0.12909
3449 182 1 13.9076 6.3698 38.7473 1.008 0.15086
3450 182 1 16.9073 6.05582 38.2477 1.008 0.07222
3451 182 1 15.9793 7.41857 37.6212 1.008 0.07222
3452 182 1 17.1886 9.0655 38.8064 1.008 0.09202
3453 182 1 17.3899 8.89046 40.5502 1.008 0.09202
3454 182 1 18.7456 7.11791 38.4422 1.008 0.10167
3455 182 1 18.8312 6.84101 40.1673 1.008 0.10167
3456 182 1 20.7543 8.15014 38.9412 1.008 0.08773
3457 182 1 19.644 9.51628 38.9551 1.008 0.08773
3458 182 1 20.1869 8.80334 40.4747 1.008 0.08773
3459 183 4 13.3803 24.34 31.401 15.999 -0.35515
3460 183 2 12.9171 24.592 32.7046 12.011 0.03297
3461 183 2 13.9374 25.4927 30.7789 12.011 0.01762
3462 183 2 12.9032 26.6191 30.5734 12.011 -0.23743
3463 183 2 13.4895 27.7989 29.8052 12.011 -0.24423
3464 183 3 12.3864 23.3115 33.3128 12.011 -0.1837
3465 183 3 11.1416 23.171 33.7726 12.011 -0.23415
3466 183 1 10.4214 23.9727 33.712 1.008 0.12909
3467 183 1 10.7993 22.2345 34.1844 1.008 0.12909
3468 183 1 13.0747 22.4768 33.3755 1.008 0.15086
3469 183 1 12.0812 25.278 32.6664 1.008 0.07222
3470 183 1 13.6993 25.0235 33.3288 1.008 0.07222
3471 183 1 14.796 25.8566 31.3634 1.008 0.09202
3472 183 1 14.315 25.1755 29.7994 1.008 0.09202
3473 183 1 12.5415 27.0101 31.5232 1.008 0.10167
3474 183 1 12.0341 26.2321 30.0382 1.008 0.10167
3475 183 1 12.9247 28.7094 29.9975 1.008 0.08773
3476 183 1 14.5243 27.9767 30.1057 1.008 0.08773
3477 183 1 13.4782 27.6109 28.731 1.008 0.08773
3478 184 4 17.6531 41.9025 3.55223 15.999 -0.35515
3479 184 2 18.2208 42.5192 4.69369 12.011 0.03297
3480 184 2 17.5426 40.4876 3.68321 12.011 0.01762
3481 184 2 18.9126 39.8184 3.84206 12.011 -0.23743
3482 184 2 18.8094 38.2973 3.86833 12.011 -0.24423
3483 184 3 18.1508 44.0133 4.5522 12.011 -0.1837
3484 184 3 19.2352 44.7925 4.52745 12.011 -0.23415
3485 184 1 20.2246 44.3688 4.61282 1.008 0.12909
3486 184 1 19.1517 45.8655 4.41705 1.008 0.12909
3487 184 1 17.1697 44.4567 4.48099 1.008 0.15086
3488 184 1 19.2684 42.2562 4.8058 1.008 0.07222
3489 184 1 17.7188 42.2162 5.6072 1.008 0.07222
3490 184 1 16.9125 40.215 4.53452 1.008 0.09202
3491 184 1 17.0466 40.1064 2.78603 1.008 0.09202
3492 184 1 19.3782 40.1138 4.78051 1.008 0.10167
3493 184 1 19.58 40.1393 3.03839 1.008 0.10167
3494 184 1 19.6855 37.8614 4.34481 1.008 0.08773
3495 184 1 17.9291 37.9786 4.4309 1.008 0.08773
3496 184 1 18.7298 37.89 2.86017 1.008 0.08773
3497 185 4 42.6273 28.5576 38.8656 15.999 -0.35515
3498 185 2 43.3133 27.6921 37.9886 12.011 0.03297
3499 185 2 41.3457 28.0681 39.2148 12.011 0.01762
3500 185 2 40.4073 28.0293 38.0002 12.011 -0.23743
3501 185 2 38.9887 27.6468 38.3944 12.011 -0.24423
3502 185 3 44.6972 28.2408 37.7999 12.011 -0.1837
3503 185 3 45.1582 28.6364 36.6161 12.011 -0.23415
3504 185 1 44.5474 28.5522 35.7351 1.008 0.12909
3505 185 1 46.1445 29.0564 36.5022 1.008 0.12909
3506 185 1 45.3302 28.332 38.6667 1.008 0.15086
3507 185 1 42.8391 27.6749 37.0088 1.008 0.07222
3508 185 1 43.3456 26.6722 38.3766 1.008 0.07222
3509 185 1 41.4363 27.0805 39.6822 1.008 0.09202
3510 185 1 40.9345 28.7454 39.9643 1.008 0.09202
3511 185 1 40.7438 27.2966 37.2687 1.008 0.10167
3512 185 1 40.3971 28.9959 37.4924 1.008 0.10167
3513 185 1 38.4425 27.2719 37.5318 1.008 0.08773
3514 185 1 39.0084 26.8656 39.1569 1.008 0.08773
3515 185 1 38.4384 28.4963 38.7985 1.008 0.08773
3516 186 4 8.4229 39.6407 34.6654 15.999 -0.35515
3517 186 2 8.68683 40.4096 33.5141 12.011 0.03297
3518 186 2 9.02082 38.3544 34.5797 12.011 0.01762
3519 186 2 8.27736 37.5232 33.5344 12.011 -0.23743
3520 186 2 8.70905 36.0644 33.5408 12.011 -0.24423
3521 186 3 8.30083 41.8664 33.6839 12.011 -0.1837
3522 186 3 7.31415 42.4706 33.0244 12.011 -0.23415
3523 186 1 6.70631 41.9179 32.3208 1.008 0.12909
3524 186 1 7.12203 43.5321 33.1405 1.008 0.12909
3525 186 1 8.92573 42.4744 34.3178 1.008 0.15086
3526 186 1 8.07963 40.0329 32.6977 1.008 0.07222
3527 186 1 9.74196 40.3409 33.229 1.008 0.07222
3528 186 1 10.093 38.4258 34.327 1.008 0.09202
3529 186 1 8.95046 37.8745 35.566 1.008 0.09202
3530 186 1 8.478 37.9239 32.546 1.008 0.10167
3531 186 1 7.20646 37.6101 33.7081 1.008 0.10167
3532 186 1 8.45686 35.5922 32.593 1.008 0.08773
3533 186 1 9.79188 35.9691 33.6835 1.008 0.08773
3534 186 1 8.21028 35.5129 34.3406 1.008 0.08773
3535 187 4 14.5718 42.0655 25.2522 15.999 -0.35515
3536 187 2 13.8113 42.5722 24.1751 12.011 0.03297
3537 187 2 13.9785 40.9136 25.831 12.011 0.01762
3538 187 2 12.6382 41.2647 26.4892 12.011 -0.23743
3539 187 2 12.0383 40.0635 27.187 12.011 -0.24423
3540 187 3 14.5808 43.7085 23.5707 12.011 -0.1837
3541 187 3 14.1572 44.9729 23.5885 12.011 -0.23415
3542 187 1 13.213 45.2573 24.0289 1.008 0.12909
3543 187 1 14.7719 45.753 23.17 1.008 0.12909
3544 187 1 15.5324 43.4751 23.1217 1.008 0.15086
3545 187 1 12.8672 42.9856 24.522 1.008 0.07222
3546 187 1 13.5996 41.7983 23.4342 1.008 0.07222
3547 187 1 13.849 40.1297 25.0743 1.008 0.09202
3548 187 1 14.6621 40.5213 26.5912 1.008 0.09202
3549 187 1 11.8978 41.5852 25.7603 1.008 0.10167
3550 187 1 12.7632 42.0876 27.1986 1.008 0.10167
3551 187 1 10.9742 40.2184 27.3359 1.008 0.08773
3552 187 1 12.1542 39.1707 26.5758 1.008 0.08773
3553 187 1 12.5265 39.8847 28.1452 1.008 0.08773
3554 188 4 23.8182 39.2454 43.3379 15.999 -0.35515
3555 188 2 24.8241 39.395 42.3617 12.011 0.03297
3556 188 2 23.0768 40.4319 43.5792 12.011 0.01762
3557 188 2 23.9638 41.5172 44.2042 12.011 -0.23743
3558 188 2 23.173 42.7662 44.5811 12.011 -0.24423
3559 188 3 25.4466 38.0466 42.1221 12.011 -0.1837
3560 188 3 26.7297 37.7898 42.3703 12.011 -0.23415
3561 188 1 27.3731 38.562 42.7587 1.008 0.12909
3562 188 1 27.1666 36.8134 42.1959 1.008 0.12909
3563 188 1 24.8187 37.2608 41.7351 1.008 0.15086
3564 188 1 25.6148 40.052 42.7188 1.008 0.07222
3565 188 1 24.4193 39.8069 41.4364 1.008 0.07222
3566 188 1 22.605 40.7823 42.6549 1.008 0.09202
3567 188 1 22.2713 40.1849 44.2765 1.008 0.09202
3568 188 1 24.7457 41.8331 43.5151 1.008 0.10167
3569 188 1 24.4635 41.1132 45.0888 1.008 0.10167
3570 188 1 23.8222 43.6389 44.6376 1.008 0.08773
3571 188 1 22.3997 42.9707 43.8391 1.008 0.08773
3572 188 1 22.6878 42.649 45.5506 1.008 0.08773
3573 189 4 39.4883 20.6596 20.8993 15.999 -0.35515
3574 189 2 39.3213 20.9133 19.5187 12.011 0.03297
3575 189 2 38.2517 20.5949 21.5919 12.011 0.01762
3576 189 2 37.5655 21.9675 21.5742 12.011 -0.23743
3577 189 2 36.2994 21.9759 22.4051 12.011 -0.24423
3578 189 3 40.6702 20.8366 18.8598 12.011 -0.1837
3579 189 3 41.2686 21.8807 18.2829 12.011 -0.23415
3580 189 1 40.8017 22.854 18.2507 1.008 0.12909
3581 189 1 42.2522 21.7825 17.8459 1.008 0.12909
3582 189 1 41.173 19.8823 18.8832 1.008 0.15086
3583 189 1 38.9506 21.9206 19.3468 1.008 0.07222
3584 189 1 38.6197 20.2078 19.069 1.008 0.07222
3585 189 1 37.602 19.8278 21.1565 1.008 0.09202
3586 189 1 38.4511 20.3065 22.6274 1.008 0.09202
3587 189 1 37.2629 22.2516 20.5671 1.008 0.10167
3588 189 1 38.2504 22.7432 21.9355 1.008 0.10167
3589 189 1 35.6527 22.7947 22.0985 1.008 0.08773
3590 189 1 35.7564 21.0395 22.2707 1.008 0.08773
3591 189 1 36.5245 22.0951 23.464 1.008 0.08773
3592 190 4 25.1918 19.2223 6.5266 15.999 -0.35515
3593 190 2 24.9357 17.8612 6.24857 12.011 0.03297
3594 190 2 26.429 19.6877 5.99544 12.011 0.01762
3595 190 2 27.6341 18.9936 6.66063 12.011 -0.23743
3596 190 2 28.986 19.531 6.21086 12.011 -0.24423
3597 190 3 23.5471 17.5384 6.73834 12.011 -0.1837
3598 190 3 23.2769 16.6298 7.67973 12.011 -0.23415
3599 190 1 24.0602 16.054 8.15072 1.008 0.12909
3600 190 1 22.262 16.4504 8.00786 1.008 0.12909
3601 190 1 22.7359 18.0917 6.29411 1.008 0.15086
3602 190 1 25.6321 17.2181 6.78028 1.008 0.07222
3603 190 1 25.039 17.6534 5.18358 1.008 0.07222
3604 190 1 26.4554 19.5597 4.90808 1.008 0.09202
3605 190 1 26.4906 20.7598 6.19976 1.008 0.09202
3606 190 1 27.6322 17.9156 6.4906 1.008 0.10167
3607 190 1 27.5782 19.1434 7.73932 1.008 0.10167
3608 190 1 29.7668 18.7993 6.40546 1.008 0.08773
3609 190 1 28.9836 19.7545 5.14584 1.008 0.08773
3610 190 1 29.2299 20.4406 6.75754 1.008 0.08773
3611 191 4 24.1383 45.6593 47.3871 15.999 -0.35515
3612 191 2 23.9031 46.8864 46.7292 12.011 0.03297
3613 191 2 25.1514 45.7613 48.3764 12.011 0.01762
3614 191 2 26.5183 46.0471 47.7354 12.011 -0.23743
3615 191 2 27.6485 46.0454 48.7558 12.011 -0.24423
3616 191 3 22.749 46.6781 45.7937 12.011 -0.1837
3617 191 3 22.8748 46.7112 44.4671 12.011 -0.23415
3618 191 1 23.8185 46.9216 43.9883 1.008 0.12909
3619 191 1 22.0212 46.5291 43.8327 1.008 0.12909
3620 191 1 21.782 46.4804 46.2294 1.008 0.15086
3621 191 1 24.7537 47.1675 46.113 1.008 0.07222
3622 191 1 23.7075 47.6954 47.4366 1.008 0.07222
3623 191 1 24.8888 46.534 49.1094 1.008 0.09202
3624 191 1 25.1948 44.8076 48.9112 1.008 0.09202
3625 191 1 26.5354 47.0232 47.2556 1.008 0.10167
3626 191 1 26.7206 45.3119 46.9525 1.008 0.10167
3627 191 1 28.5049 46.6056 48.3857 1.008 0.08773
3628 191 1 27.322 46.5058 49.6897 1.008 0.08773
3629 191 1 27.9759 45.0296 48.9763 1.008 0.08773
3630 192 4 24.495 37.9639 33.4075 15.999 -0.35515
3631 192 2 23.451 37.9282 34.3524 12.011 0.03297
3632 192 2 25.0796 36.6892 33.2077 12.011 0.01762
3633 192 2 25.8169 36.1843 34.4582 12.011 -0.23743
3634 192 2 26.5445 34.8561 34.2567 12.011 -0.24423
3635 192 3 22.8231 39.2915 34.3918 12.011 -0.1837
3636 192 3 22.8788 40.0884 35.4611 12.011 -0.23415
3637 192 1 23.3777 39.7789 36.3666 1.008 0.12909
3638 192 1 22.4359 41.0737 35.4458 1.008 0.12909
3639 192 1 22.3254 39.6322 33.4976 1.008 0.15086
3640 192 1 23.8479 37.7273 35.3438 1.008 0.07222
3641 192 1 22.7173 37.1564 34.1115 1.008 0.07222
3642 192 1 24.3164 35.9697 32.8808 1.008 0.09202
3643 192 1 25.8017 36.8267 32.4002 1.008 0.09202
3644 192 1 25.122 36.0238 35.2783 1.008 0.10167
3645 192 1 26.5306 36.9447 34.7834 1.008 0.10167
3646 192 1 26.7245 34.3624 35.2104 1.008 0.08773
3647 192 1 25.9577 34.1731 33.639 1.008 0.08773
3648 192 1 27.5137 35.0068 33.7818 1.008 0.08773
3649 193 4 4.26943 37.9583 9.45306 15.999 -0.35515
3650 193 2 4.11733 36.6003 9.76688 12.011 0.03297
3651 193 2 3.08573 38.6847 9.73251 12.011 0.01762
3652 193 2 2.06094 38.3987 8.64342 12.011 -0.23743
3653 193 2 0.906382 39.379 8.71206 12.011 -0.24423
3654 193 3 5.4408 35.8772 9.75101 12.011 -0.1837
3655 193 3 5.74049 34.8859 8.91687 12.011 -0.23415
3656 193 1 5.02566 34.5515 8.16784 1.008 0.12909
3657 193 1 6.6723 34.3329 8.97409 1.008 0.12909
3658 193 1 6.12604 36.1183 10.5263 1.008 0.15086
3659 193 1 3.46992 36.156 9.01663 1.008 0.07222
3660 193 1 3.62461 36.4667 10.7359 1.008 0.07222
3661 193 1 2.6865 38.4459 10.7286 1.008 0.09202
3662 193 1 3.33466 39.7501 9.7655 1.008 0.09202
3663 193 1 1.67737 37.3895 8.76796 1.008 0.10167
3664 193 1 2.5482 38.4451 7.67068 1.008 0.10167
3665 193 1 0.0358492 38.9824 8.19559 1.008 0.08773
3666 193 1 0.629676 39.5796 9.75224 1.008 0.08773
3667 193 1 1.17731 40.3293 8.24732 1.008 0.08773
3668 194 4 34.5917 4.5441 45.264 15.999 -0.35515
3669 194 2 34.2534 5.8557 44.8527 12.011 0.03297
3670 194 2 35.3263 4.50207 46.4838 12.011 0.01762
3671 194 2 36.6994 5.18921 46.3672 12.011 -0.23743
3672 194 2 37.5172 5.07553 47.6497 12.011 -0.24423
3673 194 3 33.4429 5.76922 43.5831 12.011 -0.1837
3674 194 3 33.845 6.25811 42.409 12.011 -0.23415
3675 194 1 34.7965 6.75714 42.2986 1.008 0.12909
3676 194 1 33.2425 6.14661 41.5161 1.008 0.12909
3677 194 1 32.4917 5.2628 43.645 1.008 0.15086
3678 194 1 35.1452 6.4301 44.613 1.008 0.07222
3679 194 1 33.7082 6.38299 45.6364 1.008 0.07222
3680 194 1 34.7357 4.94835 47.2925 1.008 0.09202
3681 194 1 35.4805 3.44899 46.7405 1.008 0.09202
3682 194 1 36.5964 6.25189 46.1559 1.008 0.10167
3683 194 1 37.2686 4.76042 45.5388 1.008 0.10167
3684 194 1 38.2677 5.86289 47.7004 1.008 0.08773
3685 194 1 36.876 5.1671 48.5282 1.008 0.08773
3686 194 1 38.0292 4.11489 47.7042 1.008 0.08773
3687 195 4 23.7386 19.9712 2.16824 15.999 -0.35515
3688 195 2 22.8555 20.4779 1.18132 12.011 0.03297
3689 195 2 23.5155 18.5985 2.46858 12.011 0.01762
3690 195 2 22.1376 18.3579 3.11158 12.011 -0.23743
3691 195 2 21.9134 16.8885 3.48401 12.011 -0.24423
3692 195 3 23.2549 21.8955 0.816258 12.011 -0.1837
3693 195 3 22.418 22.9397 0.861293 12.011 -0.23415
3694 195 1 21.4116 22.8111 1.18279 1.008 0.12909
3695 195 1 22.764 23.9359 0.671248 1.008 0.12909
3696 195 1 24.2977 22.0581 0.558515 1.008 0.15086
3697 195 1 21.8424 20.5277 1.56663 1.008 0.07222
3698 195 1 22.8619 19.8462 0.295362 1.008 0.07222
3699 195 1 23.6347 17.9889 1.56436 1.008 0.09202
3700 195 1 24.2956 18.2978 3.1751 1.008 0.09202
3701 195 1 21.3315 18.628 2.42971 1.008 0.10167
3702 195 1 22.0246 18.9913 3.99547 1.008 0.10167
3703 195 1 20.8506 16.6575 3.53859 1.008 0.08773
3704 195 1 22.3602 16.2272 2.73677 1.008 0.08773
3705 195 1 22.3589 16.6384 4.4474 1.008 0.08773
3706 196 4 37.4867 14.192 37.9068 15.999 -0.35515
3707 196 2 37.1762 12.9015 37.4238 12.011 0.03297
3708 196 2 37.7099 15.1177 36.8521 12.011 0.01762
3709 196 2 38.9796 14.76 36.0668 12.011 -0.23743
3710 196 2 39.3604 15.7959 35.0178 12.011 -0.24423
3711 196 3 36.7934 12.032 38.5881 12.011 -0.1837
3712 196 3 37.5054 10.9733 38.981 12.011 -0.23415
3713 196 1 38.4091 10.6929 38.4679 1.008 0.12909
3714 196 1 37.2018 10.372 39.8258 1.008 0.12909
3715 196 1 35.8967 12.2972 39.1217 1.008 0.15086
3716 196 1 38.0493 12.4497 36.9633 1.008 0.07222
3717 196 1 36.3753 12.9338 36.6813 1.008 0.07222
3718 196 1 36.8438 15.1394 36.1841 1.008 0.09202
3719 196 1 37.8267 16.1148 37.2884 1.008 0.09202
3720 196 1 38.8936 13.7998 35.5593 1.008 0.10167
3721 196 1 39.8032 14.6684 36.7747 1.008 0.10167
3722 196 1 40.0099 15.3557 34.2641 1.008 0.08773
3723 196 1 38.4775 16.2006 34.523 1.008 0.08773
3724 196 1 39.9002 16.6141 35.49 1.008 0.08773
3725 197 4 31.3745 29.2121 2.58133 15.999 -0.35515
3726 197 2 31.6433 30.158 1.5652 12.011 0.03297
3727 197 2 32.1499 28.0276 2.44562 12.011 0.01762
3728 197 2 31.7601 27.2607 1.17115 12.011 -0.23743
3729 197 2 32.4918 25.9339 1.0517 12.011 -0.24423
3730 197 3 30.8672 31.4111 1.86331 12.011 -0.1837
3731 197 3 29.8911 31.8771 1.08033 12.011 -0.23415
3732 197 1 29.6083 31.369 0.170724 1.008 0.12909
3733 197 1 29.3492 32.7763 1.33905 1.008 0.12909
3734 197 1 31.1229 31.9448 2.76432 1.008 0.15086
3735 197 1 31.2982 29.7988 0.599239 1.008 0.07222
3736 197 1 32.7124 30.3671 1.48957 1.008 0.07222
3737 197 1 33.2211 28.2681 2.45159 1.008 0.09202
3738 197 1 31.9569 27.3959 3.31931 1.008 0.09202
3739 197 1 32.0116 27.8275 0.27716 1.008 0.10167
3740 197 1 30.68 27.0949 1.14733 1.008 0.10167
3741 197 1 32.5227 25.5902 0.0194354 1.008 0.08773
3742 197 1 33.5163 26.0663 1.38972 1.008 0.08773
3743 197 1 32.0258 25.1611 1.66255 1.008 0.08773
3744 198 4 49.316 30.1409 27.1795 15.999 -0.35515
3745 198 2 48.1692 29.4449 26.7335 12.011 0.03297
3746 198 2 49.6766 31.2113 26.3124 12.011 0.01762
3747 198 2 50.1208 30.6831 24.9391 12.011 -0.23743
3748 198 2 50.6404 31.7903 24.0294 12.011 -0.24423
3749 198 3 47.7803 28.4325 27.7731 12.011 -0.1837
3750 198 3 47.8024 27.1144 27.5589 12.011 -0.23415
3751 198 1 48.1051 26.709 26.605 1.008 0.12909
3752 198 1 47.5259 26.4127 28.334 1.008 0.12909
3753 198 1 47.4717 28.8179 28.7309 1.008 0.15086
3754 198 1 48.3756 28.9 25.8161 1.008 0.07222
3755 198 1 47.3415 30.1272 26.5441 1.008 0.07222
3756 198 1 48.851 31.9277 26.208 1.008 0.09202
3757 198 1 50.5101 31.7489 26.7741 1.008 0.09202
3758 198 1 49.2952 30.2117 24.4103 1.008 0.10167
3759 198 1 50.8899 29.9168 25.0666 1.008 0.10167
3760 198 1 50.5865 31.4892 22.985 1.008 0.08773
3761 198 1 50.0433 32.6965 24.1478 1.008 0.08773
3762 198 1 51.6773 32.034 24.259 1.008 0.08773
3763 199 4 23.1069 17.3199 21.431 15.999 -0.35515
3764 199 2 23.4235 15.9467 21.4505 12.011 0.03297
3765 199 2 21.7468 17.5618 21.1008 12.011 0.01762
3766 199 2 21.4565 17.2813 19.6316 12.011 -0.23743
3767 199 2 20.0194 17.6464 19.2734 12.011 -0.24423
3768 199 3 24.8137 15.8141 22.0102 12.011 -0.1837
3769 199 3 25.8516 15.4032 21.281 12.011 -0.23415
3770 199 1 25.7213 15.1367 20.2433 1.008 0.12909
3771 199 1 26.8477 15.345 21.6953 1.008 0.12909
3772 199 1 24.9559 16.0928 23.0437 1.008 0.15086
3773 199 1 23.4216 15.5548 20.4363 1.008 0.07222
3774 199 1 22.7073 15.3625 22.0327 1.008 0.07222
3775 199 1 21.0768 16.9594 21.7217 1.008 0.09202
3776 199 1 21.5302 18.6123 21.3079 1.008 0.09202
3777 199 1 21.6116 16.224 19.4053 1.008 0.10167
3778 199 1 22.1493 17.8555 19.006 1.008 0.10167
3779 199 1 19.7016 17.1138 18.3807 1.008 0.08773
3780 199 1 19.3451 17.3932 20.0904 1.008 0.08773
3781 199 1 19.9385 18.7163 19.0891 1.008 0.08773
3782 200 4 21.2883 18.1321 23.7961 15.999 -0.35515
3783 200 2 20.3479 19.0024 24.374 12.011 0.03297
3784 200 2 21.5724 16.9749 24.5516 12.011 0.01762
3785 200 2 22.2792 17.361 25.8389 12.011 -0.23743
3786 200 2 22.6381 16.1271 26.6232 12.011 -0.24423
3787 200 3 20.1308 20.0762 23.3485 12.011 -0.1837
3788 200 3 20.6149 21.3111 23.509 12.011 -0.23415
3789 200 1 21.1822 21.5419 24.3955 1.008 0.12909
3790 200 1 20.5204 22.1023 22.7692 1.008 0.12909
3791 200 1 19.6176 19.83 22.4377 1.008 0.15086
3792 200 1 20.7729 19.485 25.2618 1.008 0.07222
3793 200 1 19.4181 18.4843 24.6303 1.008 0.07222
3794 200 1 20.6591 16.3939 24.7334 1.008 0.09202
3795 200 1 22.2612 16.3511 23.973 1.008 0.09202
3796 200 1 21.6475 17.9717 26.4757 1.008 0.10167
3797 200 1 23.1894 17.9208 25.619 1.008 0.10167
3798 200 1 22.611 16.3634 27.6807 1.008 0.08773
3799 200 1 21.9077 15.3308 26.4521 1.008 0.08773
3800 200 1 23.633 15.7679 26.3523 1.008 0.08773
3801 201 4 21.5132 46.979 10.3344 15.999 -0.35515
3802 201 2 22.128 48.1918 10.0029 12.011 0.03297
3803 201 2 22.2451 45.8436 9.9032 12.011 0.01762
3804 201 2 22.3004 45.775 8.36734 12.011 -0.23743
3805 201 2 23.0176 44.5278 7.87335 12.011 -0.24423
3806 201 3 21.1874 49.2111 10.5603 12.011 -0.1837
3807 201 3 20.4388 49.9859 9.77075 12.011 -0.23415
3808 201 1 20.5272 49.968 8.68994 1.008 0.12909
3809 201 1 19.6677 50.6201 10.186 1.008 0.12909
3810 201 1 21.0743 49.2668 11.6325 1.008 0.15086
3811 201 1 22.1496 48.3489 8.93863 1.008 0.07222
3812 201 1 23.1322 48.2775 10.3884 1.008 0.07222
3813 201 1 23.2478 45.8713 10.3434 1.008 0.09202
3814 201 1 21.741 44.9451 10.2904 1.008 0.09202
3815 201 1 22.8397 46.6226 7.94934 1.008 0.10167
3816 201 1 21.2866 45.8165 7.95724 1.008 0.10167
3817 201 1 23.3852 44.6741 6.86164 1.008 0.08773
3818 201 1 23.8687 44.2994 8.51444 1.008 0.08773
3819 201 1 22.3501 43.6688 7.87672 1.008 0.08773
3820 202 4 31.8086 19.0579 36.3281 15.999 -0.35515
3821 202 2 31.4353 18.2519 35.2274 12.011 0.03297
3822 202 2 30.7106 19.8205 36.8132 12.011 0.01762
3823 202 2 30.2906 20.8908 35.7914 12.011 -0.23743
3824 202 2 29.21 21.8258 36.3239 12.011 -0.24423
3825 202 3 32.5857 17.3603 34.8526 12.011 -0.1837
3826 202 3 33.2558 17.4542 33.7014 12.011 -0.23415
3827 202 1 32.9919 18.1862 32.9537 1.008 0.12909
3828 202 1 34.0987 16.81 33.4927 1.008 0.12909
3829 202 1 32.8825 16.6229 35.5789 1.008 0.15086
3830 202 1 31.2177 18.8651 34.358 1.008 0.07222
3831 202 1 30.5467 17.6628 35.4617 1.008 0.07222
3832 202 1 29.8707 19.1625 37.0673 1.008 0.09202
3833 202 1 31.0154 20.2972 37.7462 1.008 0.09202
3834 202 1 29.8791 20.4286 34.8969 1.008 0.10167
3835 202 1 31.1617 21.4705 35.4703 1.008 0.10167
3836 202 1 28.6445 22.2673 35.505 1.008 0.08773
3837 202 1 28.5087 21.2822 36.9595 1.008 0.08773
3838 202 1 29.6376 22.6377 36.911 1.008 0.08773
3839 203 4 45.9869 42.1368 18.3957 15.999 -0.35515
3840 203 2 46.7028 43.2749 17.9566 12.011 0.03297
3841 203 2 46.5799 40.9225 17.9506 12.011 0.01762
3842 203 2 46.4811 40.7865 16.4241 12.011 -0.23743
3843 203 2 46.9831 39.436 15.9299 12.011 -0.24423
3844 203 3 46.0923 44.5024 18.5747 12.011 -0.1837
3845 203 3 45.4899 45.4615 17.8683 12.011 -0.23415
3846 203 1 45.4115 45.4055 16.7927 1.008 0.12909
3847 203 1 45.0603 46.328 18.3528 1.008 0.12909
3848 203 1 46.1585 44.5948 19.6463 1.008 0.15086
3849 203 1 46.6199 43.3925 16.8792 1.008 0.07222
3850 203 1 47.763 43.1976 18.208 1.008 0.07222
3851 203 1 47.6224 40.8582 18.2881 1.008 0.09202
3852 203 1 46.0417 40.0907 18.4119 1.008 0.09202
3853 203 1 47.0781 41.5448 15.922 1.008 0.10167
3854 203 1 45.4465 40.9363 16.1059 1.008 0.10167
3855 203 1 47.2701 39.4934 14.8828 1.008 0.08773
3856 203 1 47.8592 39.1194 16.4991 1.008 0.08773
3857 203 1 46.219 38.6658 16.0338 1.008 0.08773
3858 204 4 7.4627 24.5856 21.365 15.999 -0.35515
3859 204 2 6.72385 24.6437 20.1616 12.011 0.03297
3860 204 2 8.75449 25.1679 21.2428 12.011 0.01762
3861 204 2 9.63882 24.3583 20.2804 12.011 -0.23743
3862 204 2 11.0678 24.8855 20.22 12.011 -0.24423
3863 204 3 5.33513 24.127 20.4231 12.011 -0.1837
3864 204 3 4.85139 23.0124 19.8705 12.011 -0.23415
3865 204 1 5.45039 22.4234 19.1935 1.008 0.12909
3866 204 1 3.85689 22.6553 20.0995 1.008 0.12909
3867 204 1 4.72022 24.6905 21.1055 1.008 0.15086
3868 204 1 7.16356 23.994 19.4091 1.008 0.07222
3869 204 1 6.69567 25.6592 19.7616 1.008 0.07222
3870 204 1 8.6732 26.2124 20.9185 1.008 0.09202
3871 204 1 9.21416 25.1724 22.2356 1.008 0.09202
3872 204 1 9.24965 24.3934 19.2642 1.008 0.10167
3873 204 1 9.64227 23.3062 20.5794 1.008 0.10167
3874 204 1 11.5565 24.5766 19.2978 1.008 0.08773
3875 204 1 11.0783 25.9761 20.2559 1.008 0.08773
3876 204 1 11.6594 24.519 21.0589 1.008 0.08773
3877 205 4 49.7924 47.4028 19.8646 15.999 -0.35515
3878 205 2 48.9268 48.114 19.0019 12.011 0.03297
3879 205 2 49.9046 48.0071 21.1471 12.011 0.01762
3880 205 2 50.5833 49.3843 21.0586 12.011 -0.23743
3881 205 2 50.8265 50.0038 22.43 12.011 -0.24423
3882 205 3 48.7788 47.3394 17.7216 12.011 -0.1837
3883 205 3 49.1954 47.7899 16.5358 12.011 -0.23415
3884 205 1 49.6665 48.7562 16.436 1.008 0.12909
3885 205 1 49.0795 47.1966 15.6396 1.008 0.12909
3886 205 1 48.3116 46.3708 17.7862 1.008 0.15086
3887 205 1 49.3513 49.0788 18.7364 1.008 0.07222
3888 205 1 47.9546 48.2848 19.4689 1.008 0.07222
3889 205 1 48.9171 48.0868 21.618 1.008 0.09202
3890 205 1 50.5112 47.3475 21.7753 1.008 0.09202
3891 205 1 49.9718 50.0924 20.502 1.008 0.10167
3892 205 1 51.53 49.2959 20.518 1.008 0.10167
3893 205 1 50.94 51.0836 22.3524 1.008 0.08773
3894 205 1 49.9871 49.8029 23.0976 1.008 0.08773
3895 205 1 51.7284 49.5999 22.8896 1.008 0.08773
3896 206 4 45.8861 16.2831 21.1315 15.999 -0.35515
3897 206 2 44.9401 16.1246 22.172 12.011 0.03297
3898 206 2 45.5896 15.4691 20.0049 12.011 0.01762
3899 206 2 45.8069 13.9844 20.3381 12.011 -0.23743
3900 206 2 45.6166 13.0539 19.1468 12.011 -0.24423
3901 206 3 45.2577 17.1282 23.2424 12.011 -0.1837
3902 206 3 45.703 16.7937 24.4554 12.011 -0.23415
3903 206 1 45.8326 15.7626 24.7484 1.008 0.12909
3904 206 1 45.9618 17.5541 25.1758 1.008 0.12909
3905 206 1 45.1347 18.1684 22.9885 1.008 0.15086
3906 206 1 45.0322 15.1417 22.6246 1.008 0.07222
3907 206 1 43.9136 16.2358 21.8127 1.008 0.07222
3908 206 1 44.5615 15.6528 19.6632 1.008 0.09202
3909 206 1 46.2616 15.7671 19.1947 1.008 0.09202
3910 206 1 45.0779 13.6638 21.0743 1.008 0.10167
3911 206 1 46.7981 13.8362 20.7741 1.008 0.10167
3912 206 1 45.392 12.0415 19.4781 1.008 0.08773
3913 206 1 44.7792 13.3932 18.5408 1.008 0.08773
3914 206 1 46.5028 13.0116 18.5149 1.008 0.08773
3915 207 4 36.0281 1.83141 27.9912 15.999 -0.35515
3916 207 2 35.8964 1.98153 29.3892 12.011 0.03297
3917 207 2 37.2474 2.36822 27.5 12.011 0.01762
3918 207 2 37.2872 3.89299 27.6792 12.011 -0.23743
3919 207 2 38.5103 4.52021 27.0292 12.011 -0.24423
3920 207 3 34.6441 1.28448 29.8384 12.011 -0.1837
3921 207 3 33.6044 1.92119 30.38 12.011 -0.23415
3922 207 1 33.6096 2.98994 30.5347 1.008 0.12909
3923 207 1 32.7155 1.37957 30.6695 1.008 0.12909
3924 207 1 34.5969 0.216896 29.696 1.008 0.15086
3925 207 1 35.7671 3.02843 29.6465 1.008 0.07222
3926 207 1 36.7728 1.59574 29.9148 1.008 0.07222
3927 207 1 38.1031 1.88901 27.991 1.008 0.09202
3928 207 1 37.3055 2.13441 26.4328 1.008 0.09202
3929 207 1 37.3105 4.17624 28.7297 1.008 0.10167
3930 207 1 36.3802 4.32688 27.2558 1.008 0.10167
3931 207 1 38.7426 5.48182 27.482 1.008 0.08773
3932 207 1 39.3676 3.85989 27.1554 1.008 0.08773
3933 207 1 38.3576 4.67432 25.9614 1.008 0.08773
3934 208 4 48.0877 39.2028 3.67346 15.999 -0.35515
3935 208 2 49.4434 39.2876 3.27939 12.011 0.03297
3936 208 2 47.5624 40.4534 4.10237 12.011 0.01762
3937 208 2 48.2467 40.932 5.39385 12.011 -0.23743
3938 208 2 47.6363 42.2184 5.94 12.011 -0.24423
3939 208 3 49.8697 37.9527 2.73066 12.011 -0.1837
3940 208 3 50.8039 37.1864 3.29816 12.011 -0.23415
3941 208 1 51.3188 37.4953 4.19545 1.008 0.12909
3942 208 1 51.069 36.2255 2.87812 1.008 0.12909
3943 208 1 49.3799 37.6094 1.83342 1.008 0.15086
3944 208 1 50.0826 39.4941 4.13393 1.008 0.07222
3945 208 1 49.5937 40.0801 2.54348 1.008 0.07222
3946 208 1 47.6625 41.2014 3.30585 1.008 0.09202
3947 208 1 46.4917 40.3215 4.28703 1.008 0.09202
3948 208 1 49.3 41.1445 5.2239 1.008 0.10167
3949 208 1 48.2074 40.1458 6.15317 1.008 0.10167
3950 208 1 48.3454 42.7374 6.58202 1.008 0.08773
3951 208 1 47.364 42.8916 5.12545 1.008 0.08773
3952 208 1 46.7406 42.0217 6.52612 1.008 0.08773
3953 209 4 3.15682 40.1339 30.0162 15.999 -0.35515
3954 209 2 2.77916 38.8143 30.3497 12.011 0.03297
3955 209 2 4.18353 40.222 29.0389 12.011 0.01762
3956 209 2 5.49222 39.5618 29.5025 12.011 -0.23743
3957 209 2 6.57433 39.7043 28.4402 12.011 -0.24423
3958 209 3 1.65387 38.8611 31.3574 12.011 -0.1837
3959 209 3 1.72178 38.3047 32.571 12.011 -0.23415
3960 209 1 2.60753 37.7886 32.9018 1.008 0.12909
3961 209 1 0.919836 38.4187 33.285 1.008 0.12909
3962 209 1 0.768835 39.4257 31.0893 1.008 0.15086
3963 209 1 3.59748 38.285 30.8287 1.008 0.07222
3964 209 1 2.4725 38.266 29.46 1.008 0.07222
3965 209 1 3.83769 39.7811 28.0934 1.008 0.09202
3966 209 1 4.36976 41.2883 28.8591 1.008 0.09202
3967 209 1 5.3633 38.4931 29.6674 1.008 0.10167
3968 209 1 5.83639 39.9902 30.4502 1.008 0.10167
3969 209 1 7.28827 38.8898 28.5201 1.008 0.08773
3970 209 1 6.14984 39.6645 27.4338 1.008 0.08773
3971 209 1 7.11016 40.6481 28.5508 1.008 0.08773
3972 210 4 10.1013 9.82787 18.7491 15.999 -0.35515
3973 210 2 9.98148 9.81609 17.3385 12.011 0.03297
3974 210 2 11.2947 10.4599 19.2032 12.011 0.01762
3975 210 2 12.5383 9.63941 18.8218 12.011 -0.23743
3976 210 2 13.8387 10.2606 19.3257 12.011 -0.24423
3977 210 3 8.64826 9.23332 16.9663 12.011 -0.1837
3978 210 3 8.50378 8.08956 16.2915 12.011 -0.23415
3979 210 1 9.35952 7.51409 15.9727 1.008 0.12909
3980 210 1 7.52288 7.70442 16.0504 1.008 0.12909
3981 210 1 7.77634 9.78915 17.2674 1.008 0.15086
3982 210 1 10.7466 9.19309 16.88 1.008 0.07222
3983 210 1 10.0622 10.8228 16.9289 1.008 0.07222
3984 210 1 11.3636 11.4843 18.8206 1.008 0.09202
3985 210 1 11.2476 10.5318 20.2926 1.008 0.09202
3986 210 1 12.638 9.55308 17.7443 1.008 0.10167
3987 210 1 12.4413 8.61263 19.1852 1.008 0.10167
3988 210 1 14.6775 9.94269 18.707 1.008 0.08773
3989 210 1 13.7906 11.3495 19.2764 1.008 0.08773
3990 210 1 14.0387 9.96973 20.3559 1.008 0.08773
3991 211 4 35.3271 38.5205 10.3412 15.999 -0.35515
3992 211 2 35.5188 39.5809 11.255 12.011 0.03297
3993 211 2 35.4365 37.2508 10.9691 12.011 0.01762
3994 211 2 36.8734 37.0093 11.4577 12.011 -0.23743
3995 211 2 37.0798 35.6051 12.0124 12.011 -0.24423
3996 211 3 35.219 40.8858 10.5736 12.011 -0.1837
3997 211 3 36.14 41.8262 10.3664 12.011 -0.23415
3998 211 1 37.1663 41.6865 10.6752 1.008 0.12909
3999 211 1 35.8885 42.7513 9.86794 1.008 0.12909
4000 211 1 34.204 41.0567 10.2515 1.008 0.15086
4001 211 1 36.5544 39.6327 11.5827 1.008 0.07222
4002 211 1 34.8875 39.4515 12.1345 1.008 0.07222
4003 211 1 34.7165 37.1676 11.7927 1.008 0.09202
4004 211 1 35.1732 36.4895 10.2293 1.008 0.09202
4005 211 1 37.1483 37.7044 12.2491 1.008 0.10167
4006 211 1 37.5672 37.1864 10.6325 1.008 0.10167
4007 211 1 37.9458 35.5717 12.6705 1.008 0.08773
4008 211 1 36.2076 35.2848 12.5844 1.008 0.08773
4009 211 1 37.237 34.8882 11.2066 1.008 0.08773
4010 212 4 20.722 28.6742 41.0556 15.999 -0.35515
4011 212 2 20.2853 29.0962 42.3341 12.011 0.03297
4012 212 2 19.8986 29.1741 40.0082 12.011 0.01762
4013 212 2 18.4555 28.6396 40.0899 12.011 -0.23743
4014 212 2 17.6137 29.0812 38.9069 12.011 -0.24423
4015 212 3 21.2404 28.583 43.3802 12.011 -0.1837
4016 212 3 20.8881 27.7514 44.3641 12.011 -0.23415
4017 212 1 19.8777 27.3836 44.4546 1.008 0.12909
4018 212 1 21.6108 27.4038 45.0874 1.008 0.12909
4019 212 1 22.2632 28.9114 43.3048 1.008 0.15086
4020 212 1 19.3076 28.6901 42.5836 1.008 0.07222
4021 212 1 20.2121 30.1831 42.3644 1.008 0.07222
4022 212 1 19.9039 30.2714 40.0261 1.008 0.09202
4023 212 1 20.3425 28.8597 39.0582 1.008 0.09202
4024 212 1 17.9459 28.9907 40.9862 1.008 0.10167
4025 212 1 18.4386 27.5505 40.1149 1.008 0.10167
4026 212 1 16.5539 29.039 39.1571 1.008 0.08773
4027 212 1 17.8719 30.1019 38.6247 1.008 0.08773
4028 212 1 17.7861 28.4394 38.043 1.008 0.08773
4029 213 4 47.7263 38.0948 10.8049 15.999 -0.35515
4030 213 2 48.4376 36.9113 11.1166 12.011 0.03297
4031 213 2 46.7048 38.3844 11.7499 12.011 0.01762
4032 213 2 45.5716 37.35 11.6835 12.011 -0.23743
4033 213 2 44.4087 37.7052 12.6015 12.011 -0.24423
4034 213 3 49.6003 36.8121 10.1754 12.011 -0.1837
4035 213 3 49.792 35.7864 9.34787 12.011 -0.23415
4036 213 1 49.1322 34.9262 9.33277 1.008 0.12909
4037 213 1 50.6124 35.7871 8.63829 1.008 0.12909
4038 213 1 50.3003 37.6225 10.1456 1.008 0.15086
4039 213 1 47.8107 36.0335 10.9498 1.008 0.07222
4040 213 1 48.777 36.9005 12.1547 1.008 0.07222
4041 213 1 47.1317 38.4346 12.7589 1.008 0.09202
4042 213 1 46.3055 39.3753 11.5121 1.008 0.09202
4043 213 1 45.9265 36.3623 11.9716 1.008 0.10167
4044 213 1 45.2004 37.2646 10.6602 1.008 0.10167
4045 213 1 43.8128 36.823 12.8265 1.008 0.08773
4046 213 1 44.7663 38.1211 13.5453 1.008 0.08773
4047 213 1 43.7529 38.4413 12.136 1.008 0.08773
4048 214 4 19.7174 47.5787 43.5893 15.999 -0.35515
4049 214 2 20.1869 47.9281 42.3007 12.011 0.03297
4050 214 2 18.8862 46.4241 43.5766 12.011 0.01762
4051 214 2 17.5735 46.7136 42.8327 12.011 -0.23743
4052 214 2 16.5913 45.5509 42.8993 12.011 -0.24423
4053 214 3 21.1743 49.0588 42.4324 12.011 -0.1837
4054 214 3 20.9709 50.2844 41.9434 12.011 -0.23415
4055 214 1 20.0664 50.5326 41.411 1.008 0.12909
4056 214 1 21.7058 51.0664 42.0775 1.008 0.12909
4057 214 1 22.0909 48.8571 42.9612 1.008 0.15086
4058 214 1 19.375 48.2901 41.676 1.008 0.07222
4059 214 1 20.641 47.068 41.8035 1.008 0.07222
4060 214 1 19.4141 45.5714 43.1305 1.008 0.09202
4061 214 1 18.6616 46.1547 44.6139 1.008 0.09202
4062 214 1 17.7542 46.908 41.7775 1.008 0.10167
4063 214 1 17.1092 47.6142 43.2435 1.008 0.10167
4064 214 1 15.8681 45.6116 42.0885 1.008 0.08773
4065 214 1 17.1144 44.5971 42.8137 1.008 0.08773
4066 214 1 16.0435 45.5517 43.8415 1.008 0.08773
4067 215 4 42.4696 8.94259 42.5595 15.999 -0.35515
4068 215 2 42.8552 8.31189 43.763 12.011 0.03297
4069 215 2 42.3197 10.3473 42.7292 12.011 0.01762
4070 215 2 41.0929 10.6899 43.5726 12.011 -0.23743
4071 215 2 40.8741 12.1964 43.6518 12.011 -0.24423
4072 215 3 43.1419 6.86776 43.4577 12.011 -0.1837
4073 215 3 42.4047 5.86316 43.9292 12.011 -0.23415
4074 215 1 41.5743 6.04855 44.5911 1.008 0.12909
4075 215 1 42.5999 4.84054 43.646 1.008 0.12909
4076 215 1 43.9721 6.65715 42.8048 1.008 0.15086
4077 215 1 42.0332 8.33612 44.4738 1.008 0.07222
4078 215 1 43.7174 8.80366 44.2213 1.008 0.07222
4079 215 1 43.1994 10.7756 43.2201 1.008 0.09202
4080 215 1 42.2344 10.8063 41.7385 1.008 0.09202
4081 215 1 41.2235 10.3274 44.5894 1.008 0.10167
4082 215 1 40.2114 10.1923 43.1654 1.008 0.10167
4083 215 1 40.2794 12.4565 44.525 1.008 0.08773
4084 215 1 41.8296 12.7227 43.7262 1.008 0.08773
4085 215 1 40.3606 12.566 42.7625 1.008 0.08773
4086 216 4 35.6058 49.3698 26.9207 15.999 -0.35515
4087 216 2 35.3046 48.0239 27.2276 12.011 0.03297
4088 216 2 36.9851 49.5782 26.6517 12.011 0.01762
4089 216 2 37.8371 49.332 27.9036 12.011 -0.23743
4090 216 2 39.3028 49.6593 27.6617 12.011 -0.24423
4091 216 3 33.8122 47.9073 27.3655 12.011 -0.1837
4092 216 3 33.2032 47.6149 28.5159 12.011 -0.23415
4093 216 1 33.7649 47.4177 29.4163 1.008 0.12909
4094 216 1 32.1246 47.5719 28.5819 1.008 0.12909
4095 216 1 33.2202 48.0903 26.4826 1.008 0.15086
4096 216 1 35.7332 47.7404 28.1858 1.008 0.07222
4097 216 1 35.6882 47.3442 26.4638 1.008 0.07222
4098 216 1 37.3118 48.9395 25.8209 1.008 0.09202
4099 216 1 37.1099 50.6191 26.3334 1.008 0.09202
4100 216 1 37.7928 48.2913 28.2176 1.008 0.10167
4101 216 1 37.456 49.9289 28.737 1.008 0.10167
4102 216 1 39.9234 49.1263 28.371 1.008 0.08773
4103 216 1 39.612 49.3579 26.6599 1.008 0.08773
4104 216 1 39.4957 50.7257 27.7781 1.008 0.08773
4105 217 4 20.1621 24.1192 5.29884 15.999 -0.35515
4106 217 2 20.5728 23.8438 3.97627 12.011 0.03297
4107 217 2 19.3749 25.2907 5.37368 12.011 0.01762
4108 217 2 20.1717 26.5484 5.04098 12.011 -0.23743
4109 217 2 19.3275 27.7992 5.24396 12.011 -0.24423
4110 217 3 21.3474 22.5439 4.0604 12.011 -0.1837
4111 217 3 22.6858 22.4755 4.02708 12.011 -0.23415
4112 217 1 23.2671 23.3482 3.86161 1.008 0.12909
4113 217 1 23.1832 21.5356 4.07477 1.008 0.12909
4114 217 1 20.7594 21.6315 4.13988 1.008 0.15086
4115 217 1 21.267 24.5949 3.61202 1.008 0.07222
4116 217 1 19.7253 23.7879 3.27591 1.008 0.07222
4117 217 1 18.5463 25.2306 4.67744 1.008 0.09202
4118 217 1 18.9495 25.3621 6.37526 1.008 0.09202
4119 217 1 20.469 26.5431 3.99422 1.008 0.10167
4120 217 1 21.0826 26.5962 5.64104 1.008 0.10167
4121 217 1 19.7234 28.6342 4.6685 1.008 0.08773
4122 217 1 18.3007 27.6193 4.91688 1.008 0.08773
4123 217 1 19.2954 28.0915 6.29446 1.008 0.08773
4124 218 4 45.8054 39.818 22.4317 15.999 -0.35515
4125 218 2 46.9884 40.5325 22.1331 12.011 0.03297
4126 218 2 44.7723 40.0709 21.4866 12.011 0.01762
4127 218 2 44.3081 41.5336 21.5546 12.011 -0.23743
4128 218 2 43.1314 41.8191 20.6306 12.011 -0.24423
4129 218 3 48.0648 40.1005 23.0866 12.011 -0.1837
4130 218 3 48.5974 40.9024 24.0135 12.011 -0.23415
4131 218 1 48.2818 41.9291 24.1199 1.008 0.12909
4132 218 1 49.351 40.54 24.7002 1.008 0.12909
4133 218 1 48.3947 39.0775 23.0117 1.008 0.15086
4134 218 1 46.8444 41.5987 22.287 1.008 0.07222
4135 218 1 47.2974 40.374 21.0979 1.008 0.07222
4136 218 1 45.1126 39.8209 20.4768 1.008 0.09202
4137 218 1 43.9304 39.4108 21.7132 1.008 0.09202
4138 218 1 45.1022 42.2117 21.2451 1.008 0.10167
4139 218 1 44.0466 41.7954 22.584 1.008 0.10167
4140 218 1 43.0729 42.8831 20.41 1.008 0.08773
4141 218 1 43.255 41.2925 19.6827 1.008 0.08773
4142 218 1 42.1884 41.5073 21.0792 1.008 0.08773
4143 219 4 23.8216 22.277 39.7531 15.999 -0.35515
4144 219 2 24.4784 23.0197 40.7659 12.011 0.03297
4145 219 2 22.4821 21.9421 40.1103 12.011 0.01762
4146 219 2 22.4491 20.9485 41.281 12.011 -0.23743
4147 219 2 21.0417 20.4437 41.5825 12.011 -0.24423
4148 219 3 25.8343 23.4614 40.2942 12.011 -0.1837
4149 219 3 26.9731 23.0451 40.8523 12.011 -0.23415
4150 219 1 26.9711 22.3437 41.673 1.008 0.12909
4151 219 1 27.9316 23.3905 40.4991 1.008 0.12909
4152 219 1 25.858 24.167 39.4799 1.008 0.15086
4153 219 1 24.6175 22.426 41.6685 1.008 0.07222
4154 219 1 23.9072 23.9064 41.0288 1.008 0.07222
4155 219 1 21.9047 22.8399 40.3572 1.008 0.09202
4156 219 1 22.0015 21.4893 39.2397 1.008 0.09202
4157 219 1 22.8103 21.418 42.1947 1.008 0.10167
4158 219 1 23.1101 20.1032 41.0743 1.008 0.10167
4159 219 1 20.9813 20.0602 42.6004 1.008 0.08773
4160 219 1 20.3152 21.2543 41.4918 1.008 0.08773
4161 219 1 20.75 19.6455 40.899 1.008 0.08773
4162 220 4 25.0632 21.2164 9.13513 15.999 -0.35515
4163 220 2 25.5662 21.5704 10.409 12.011 0.03297
4164 220 2 23.6406 21.177 9.06436 12.011 0.01762
4165 220 2 23.0383 20.0816 9.96774 12.011 -0.23743
4166 220 2 21.5189 20.0057 9.87669 12.011 -0.24423
4167 220 3 27.0729 21.6202 10.3278 12.011 -0.1837
4168 220 3 27.8833 20.8129 11.019 12.011 -0.23415
4169 220 1 27.4913 20.0742 11.7027 1.008 0.12909
4170 220 1 28.9564 20.8493 10.8928 1.008 0.12909
4171 220 1 27.5035 22.3296 9.63914 1.008 0.15086
4172 220 1 25.3205 20.8061 11.1405 1.008 0.07222
4173 220 1 25.1506 22.5192 10.7481 1.008 0.07222
4174 220 1 23.2302 22.1634 9.3129 1.008 0.09202
4175 220 1 23.3738 20.9664 8.02267 1.008 0.09202
4176 220 1 23.2683 20.2634 11.0129 1.008 0.10167
4177 220 1 23.4667 19.1088 9.7133 1.008 0.10167
4178 220 1 21.0893 19.5618 10.772 1.008 0.08773
4179 220 1 21.0931 21.004 9.75821 1.008 0.08773
4180 220 1 21.2185 19.3963 9.02573 1.008 0.08773
4181 221 4 9.20499 14.8552 29.8981 15.999 -0.35515
4182 221 2 10.4852 15.2536 30.3433 12.011 0.03297
4183 221 2 9.22299 14.3671 28.5627 12.011 0.01762
4184 221 2 9.57292 15.4829 27.5652 12.011 -0.23743
4185 221 2 9.4721 15.0217 26.1153 12.011 -0.24423
4186 221 3 10.3943 15.6149 31.8 12.011 -0.1837
4187 221 3 10.588 16.8545 32.2528 12.011 -0.23415
4188 221 1 10.8224 17.651 31.5674 1.008 0.12909
4189 221 1 10.5071 17.0987 33.3029 1.008 0.12909
4190 221 1 10.1511 14.825 32.4915 1.008 0.15086
4191 221 1 10.8126 16.1455 29.8142 1.008 0.07222
4192 221 1 11.2272 14.469 30.1801 1.008 0.07222
4193 221 1 9.92165 13.5261 28.4728 1.008 0.09202
4194 221 1 8.22381 13.9842 28.3355 1.008 0.09202
4195 221 1 10.5891 15.8432 27.7109 1.008 0.10167
4196 221 1 8.9125 16.3395 27.7252 1.008 0.10167
4197 221 1 10.0621 15.6634 25.4638 1.008 0.08773
4198 221 1 9.83968 14 26.0069 1.008 0.08773
4199 221 1 8.43938 15.0475 25.7669 1.008 0.08773
4200 222 4 42.3207 39.2605 36.3303 15.999 -0.35515
4201 222 2 43.1848 38.7896 37.3457 12.011 0.03297
4202 222 2 41.4236 40.2495 36.8201 12.011 0.01762
4203 222 2 40.4994 39.6548 37.8928 12.011 -0.23743
4204 222 2 39.4242 40.6335 38.3372 12.011 -0.24423
4205 222 3 44.2532 37.941 36.7193 12.011 -0.1837
4206 222 3 44.4869 36.6832 37.0834 12.011 -0.23415
4207 222 1 43.9091 36.2038 37.8588 1.008 0.12909
4208 222 1 45.238 36.0969 36.5729 1.008 0.12909
4209 222 1 44.8342 38.3752 35.9211 1.008 0.15086
4210 222 1 42.6609 38.1659 38.0633 1.008 0.07222
4211 222 1 43.6225 39.6115 37.9062 1.008 0.07222
4212 222 1 41.9724 41.1124 37.2181 1.008 0.09202
4213 222 1 40.8269 40.6115 35.978 1.008 0.09202
4214 222 1 41.0586 39.3818 38.7862 1.008 0.10167
4215 222 1 40.0365 38.7409 37.5144 1.008 0.10167
4216 222 1 39.049 40.3714 39.3252 1.008 0.08773
4217 222 1 39.8338 41.6434 38.3847 1.008 0.08773
4218 222 1 38.5859 40.6434 37.6418 1.008 0.08773
4219 223 4 42.064 13.7697 37.0999 15.999 -0.35515
4220 223 2 41.5387 13.0154 38.178 12.011 0.03297
4221 223 2 42.231 12.9911 35.9233 12.011 0.01762
4222 223 2 43.3889 12.0051 36.1239 12.011 -0.23743
4223 223 2 43.7246 11.2186 34.8623 12.011 -0.24423
4224 223 3 41.1824 13.958 39.2963 12.011 -0.1837
4225 223 3 41.8278 13.9956 40.4637 12.011 -0.23415
4226 223 1 42.6521 13.3312 40.6642 1.008 0.12909
4227 223 1 41.5466 14.6945 41.2402 1.008 0.12909
4228 223 1 40.3562 14.6299 39.1262 1.008 0.15086
4229 223 1 42.2866 12.3238 38.56 1.008 0.07222
4230 223 1 40.6627 12.4352 37.8746 1.008 0.07222
4231 223 1 41.2941 12.4808 35.6634 1.008 0.09202
4232 223 1 42.4645 13.6666 35.0933 1.008 0.09202
4233 223 1 43.1573 11.284 36.9019 1.008 0.10167
4234 223 1 44.2704 12.5513 36.4655 1.008 0.10167
4235 223 1 44.2498 10.2979 35.112 1.008 0.08773
4236 223 1 42.8199 10.9489 34.3147 1.008 0.08773
4237 223 1 44.3579 11.8019 34.1941 1.008 0.08773
4238 224 4 32.6314 27.6073 28.9672 15.999 -0.35515
4239 224 2 31.366 28.178 29.2317 12.011 0.03297
4240 224 2 33.6386 28.1272 29.8249 12.011 0.01762
4241 224 2 33.8785 29.6209 29.5521 12.011 -0.23743
4242 224 2 35.0249 30.168 30.3783 12.011 -0.24423
4243 224 3 30.3425 27.5006 28.3624 12.011 -0.1837
4244 224 3 29.6427 28.1368 27.4263 12.011 -0.23415
4245 224 1 29.7753 29.1947 27.263 1.008 0.12909
4246 224 1 28.9277 27.618 26.8012 1.008 0.12909
4247 224 1 30.1922 26.4445 28.5181 1.008 0.15086
4248 224 1 31.3554 29.2286 28.957 1.008 0.07222
4249 224 1 31.1062 28.0955 30.289 1.008 0.07222
4250 224 1 33.3709 27.9582 30.8756 1.008 0.09202
4251 224 1 34.5646 27.5761 29.6358 1.008 0.09202
4252 224 1 33.0096 30.2245 29.8048 1.008 0.10167
4253 224 1 34.0742 29.7916 28.4903 1.008 0.10167
4254 224 1 34.9388 31.2485 30.4679 1.008 0.08773
4255 224 1 35.0053 29.733 31.379 1.008 0.08773
4256 224 1 35.9832 29.9319 29.916 1.008 0.08773
4257 225 4 35.5497 38.8187 27.6845 15.999 -0.35515
4258 225 2 35.8121 37.9895 26.5703 12.011 0.03297
4259 225 2 34.3186 39.5205 27.5525 12.011 0.01762
4260 225 2 34.3559 40.4708 26.3442 12.011 -0.23743
4261 225 2 33.0892 41.298 26.2206 12.011 -0.24423
4262 225 3 37.0426 37.1746 26.8356 12.011 -0.1837
4263 225 3 38.1805 37.3063 26.1525 12.011 -0.23415
4264 225 1 38.2678 38.0152 25.3418 1.008 0.12909
4265 225 1 39.0532 36.717 26.403 1.008 0.12909
4266 225 1 36.9822 36.4568 27.6352 1.008 0.15086
4267 225 1 36.0198 38.5693 25.6765 1.008 0.07222
4268 225 1 34.9662 37.3412 26.364 1.008 0.07222
4269 225 1 33.4806 38.8149 27.4741 1.008 0.09202
4270 225 1 34.1622 40.1034 28.4667 1.008 0.09202
4271 225 1 34.45 39.9361 25.4022 1.008 0.10167
4272 225 1 35.2212 41.135 26.4239 1.008 0.10167
4273 225 1 32.9498 41.6601 25.2041 1.008 0.08773
4274 225 1 32.2059 40.7257 26.5114 1.008 0.08773
4275 225 1 33.1602 42.1618 26.8699 1.008 0.08773
4276 226 4 6.22546 38.7954 7.66257 15.999 -0.35515
4277 226 2 5.92994 38.2806 6.37914 12.011 0.03297
4278 226 2 5.52439 40.0073 7.90128 12.011 0.01762
4279 226 2 6.13342 41.1167 7.05151 12.011 -0.23743
4280 226 2 5.51861 42.4763 7.34379 12.011 -0.24423
4281 226 3 6.49584 36.8958 6.27927 12.011 -0.1837
4282 226 3 7.5787 36.5471 5.58028 12.011 -0.23415
4283 226 1 8.12378 37.2779 5.00662 1.008 0.12909
4284 226 1 7.93085 35.5221 5.58693 1.008 0.12909
4285 226 1 5.96817 36.1455 6.82158 1.008 0.15086
4286 226 1 6.40862 38.8691 5.60156 1.008 0.07222
4287 226 1 4.8497 38.2589 6.19575 1.008 0.07222
4288 226 1 4.45589 39.8948 7.68013 1.008 0.09202
4289 226 1 5.60597 40.2562 8.96407 1.008 0.09202
4290 226 1 5.97616 40.9184 5.99428 1.008 0.10167
4291 226 1 7.21212 41.136 7.2227 1.008 0.10167
4292 226 1 5.6839 43.1513 6.50763 1.008 0.08773
4293 226 1 4.44268 42.3856 7.50317 1.008 0.08773
4294 226 1 5.95753 42.9163 8.23913 1.008 0.08773
4295 227 4 35.557 21.1787 44.5698 15.999 -0.35515
4296 227 2 35.018 20.8791 45.8411 12.011 0.03297
4297 227 2 36.9798 21.1855 44.5715 12.011 0.01762
4298 227 2 37.5161 22.3539 45.4138 12.011 -0.23743
4299 227 2 39.0315 22.4802 45.3374 12.011 -0.24423
4300 227 3 33.5262 20.7447 45.7027 12.011 -0.1837
4301 227 3 32.6556 21.5823 46.2717 12.011 -0.23415
4302 227 1 32.9899 22.4122 46.8746 1.008 0.12909
4303 227 1 31.5905 21.4599 46.1348 1.008 0.12909
4304 227 1 33.1637 19.9277 45.0993 1.008 0.15086
4305 227 1 35.2027 21.6925 46.5384 1.008 0.07222
4306 227 1 35.4593 19.9682 46.2528 1.008 0.07222
4307 227 1 37.3704 20.2239 44.9299 1.008 0.09202
4308 227 1 37.3186 21.3011 43.5371 1.008 0.09202
4309 227 1 37.2657 22.2264 46.4646 1.008 0.10167
4310 227 1 37.0514 23.2883 45.0896 1.008 0.10167
4311 227 1 39.4209 23.0123 46.2036 1.008 0.08773
4312 227 1 39.4927 21.4936 45.3046 1.008 0.08773
4313 227 1 39.3374 23.0191 44.4415 1.008 0.08773
4314 228 4 3.1771 44.901 39.766 15.999 -0.35515
4315 228 2 2.52296 46.0455 40.2811 12.011 0.03297
4316 228 2 4.37454 44.5876 40.4739 12.011 0.01762
4317 228 2 5.44782 45.6692 40.289 12.011 -0.23743
4318 228 2 6.78006 45.3157 40.9306 12.011 -0.24423
4319 228 3 1.22032 46.2467 39.555 12.011 -0.1837
4320 228 3 0.954828 47.3025 38.7802 12.011 -0.23415
4321 228 1 1.67785 48.0945 38.6386 1.008 0.12909
4322 228 1 0.00796896 47.3923 38.2614 1.008 0.12909
4323 228 1 0.475336 45.4816 39.6745 1.008 0.15086
4324 228 1 3.11356 46.9295 40.0902 1.008 0.07222
4325 228 1 2.38163 45.9828 41.3612 1.008 0.07222
4326 228 1 4.16628 44.4492 41.5418 1.008 0.09202
4327 228 1 4.75777 43.6404 40.0851 1.008 0.09202
4328 228 1 5.13318 46.5973 40.7586 1.008 0.10167
4329 228 1 5.59974 45.8905 39.2293 1.008 0.10167
4330 228 1 7.3207 46.2326 41.1464 1.008 0.08773
4331 228 1 6.63576 44.7897 41.874 1.008 0.08773
4332 228 1 7.39032 44.7022 40.2689 1.008 0.08773
4333 229 4 37.8361 37.0798 19.5973 15.999 -0.35515
4334 229 2 37.9885 38.4815 19.4713 12.011 0.03297
4335 229 2 37.8854 36.3995 18.3447 12.011 0.01762
4336 229 2 36.6753 36.7545 17.4663 12.011 -0.23743
4337 229 2 36.6119 35.9737 16.1579 12.011 -0.24423
4338 229 3 38.1004 39.1215 20.8305 12.011 -0.1837
4339 229 3 37.2272 40.023 21.2922 12.011 -0.23415
4340 229 1 36.3837 40.3364 20.6956 1.008 0.12909
4341 229 1 37.313 40.4304 22.2887 1.008 0.12909
4342 229 1 38.92 38.8076 21.459 1.008 0.15086
4343 229 1 37.113 38.9137 18.9975 1.008 0.07222
4344 229 1 38.8653 38.728 18.8728 1.008 0.07222
4345 229 1 38.8212 36.6328 17.8209 1.008 0.09202
4346 229 1 37.8781 35.3234 18.5445 1.008 0.09202
4347 229 1 36.7155 37.8034 17.1896 1.008 0.10167
4348 229 1 35.7483 36.6002 18.0246 1.008 0.10167
4349 229 1 35.9964 36.4998 15.4289 1.008 0.08773
4350 229 1 37.6089 35.8481 15.7333 1.008 0.08773
4351 229 1 36.1785 34.9858 16.3143 1.008 0.08773
4352 230 4 16.2475 6.34852 49.8053 15.999 -0.35515
4353 230 2 16.6838 5.0363 50.0942 12.011 0.03297
4354 230 2 14.8318 6.46976 49.8603 12.011 0.01762
4355 230 2 14.1322 5.69964 48.7449 12.011 -0.23743
4356 230 2 12.6296 5.95479 48.7729 12.011 -0.24423
4357 230 3 18.1874 5.01494 50.1167 12.011 -0.1837
4358 230 3 18.9237 4.34355 49.2256 12.011 -0.23415
4359 230 1 18.4608 3.772 48.4361 1.008 0.12909
4360 230 1 20.0037 4.35876 49.264 1.008 0.12909
4361 230 1 18.6786 5.57597 50.8944 1.008 0.15086
4362 230 1 16.3669 4.35483 49.309 1.008 0.07222
4363 230 1 16.2743 4.67996 51.0423 1.008 0.07222
4364 230 1 14.4496 6.10296 50.819 1.008 0.09202
4365 230 1 14.5834 7.53316 49.7792 1.008 0.09202
4366 230 1 14.281 4.6285 48.87 1.008 0.10167
4367 230 1 14.5535 5.97421 47.7744 1.008 0.10167
4368 230 1 12.0938 5.14601 48.2816 1.008 0.08773
4369 230 1 12.2682 6.0216 49.8011 1.008 0.08773
4370 230 1 12.3804 6.8899 48.2711 1.008 0.08773
4371 231 4 12.1736 45.8323 15.0043 15.999 -0.35515
4372 231 2 11.7633 47.1869 14.9279 12.011 0.03297
4373 231 2 12.0764 45.2398 16.3022 12.011 0.01762
4374 231 2 12.9273 45.9671 17.3548 12.011 -0.23743
4375 231 2 12.8317 45.3425 18.7438 12.011 -0.24423
4376 231 3 11.8307 47.653 13.5015 12.011 -0.1837
4377 231 3 12.6381 48.6336 13.0902 12.011 -0.23415
4378 231 1 13.2993 49.1496 13.7766 1.008 0.12909
4379 231 1 12.7226 48.892 12.0392 1.008 0.12909
4380 231 1 11.2468 47.1175 12.7751 1.008 0.15086
4381 231 1 12.424 47.8324 15.5063 1.008 0.07222
4382 231 1 10.7523 47.309 15.2993 1.008 0.07222
4383 231 1 11.038 45.2234 16.6266 1.008 0.09202
4384 231 1 12.3825 44.1906 16.2216 1.008 0.09202
4385 231 1 12.5818 46.9914 17.4551 1.008 0.10167
4386 231 1 13.9734 46.0114 17.0469 1.008 0.10167
4387 231 1 13.0993 46.0709 19.5102 1.008 0.08773
4388 231 1 11.81 45.004 18.9423 1.008 0.08773
4389 231 1 13.5039 44.4869 18.8361 1.008 0.08773
4390 232 4 3.81254 45.1657 45.7722 15.999 -0.35515
4391 232 2 5.00039 45.4939 46.4643 12.011 0.03297
4392 232 2 2.93046 44.3737 46.5585 12.011 0.01762
4393 232 2 3.53347 42.9889 46.8457 12.011 -0.23743
4394 232 2 2.56462 42.0709 47.5811 12.011 -0.24423
4395 232 3 5.81008 46.4299 45.6122 12.011 -0.1837
4396 232 3 7.00569 46.1127 45.112 12.011 -0.23415
4397 232 1 7.46014 45.1515 45.2983 1.008 0.12909
4398 232 1 7.55461 46.8104 44.5002 1.008 0.12909
4399 232 1 5.38596 47.3992 45.4058 1.008 0.15086
4400 232 1 5.61181 44.6092 46.6242 1.008 0.07222
4401 232 1 4.78371 45.9393 47.4376 1.008 0.07222
4402 232 1 2.68011 44.8932 47.492 1.008 0.09202
4403 232 1 1.99935 44.2531 45.9965 1.008 0.09202
4404 232 1 4.42099 43.0657 47.4699 1.008 0.10167
4405 232 1 3.84979 42.5211 45.9099 1.008 0.10167
4406 232 1 3.10095 41.2764 48.0972 1.008 0.08773
4407 232 1 1.9937 42.6303 48.3241 1.008 0.08773
4408 232 1 1.85899 41.6112 46.8893 1.008 0.08773
4409 233 4 14.9526 20.5152 42.5701 15.999 -0.35515
4410 233 2 15.9384 21.0234 41.6954 12.011 0.03297
4411 233 2 14.1912 19.4846 41.9568 12.011 0.01762
4412 233 2 13.3974 20.0281 40.7581 12.011 -0.23743
4413 233 2 12.4816 18.9729 40.1623 12.011 -0.24423
4414 233 3 16.7766 22.0045 42.4525 12.011 -0.1837
4415 233 3 16.822 23.3017 42.1564 12.011 -0.23415
4416 233 1 16.2569 23.733 41.3423 1.008 0.12909
4417 233 1 17.4337 23.9549 42.7554 1.008 0.12909
4418 233 1 17.3563 21.6354 43.2806 1.008 0.15086
4419 233 1 15.4856 21.5799 40.8781 1.008 0.07222
4420 233 1 16.5519 20.2244 41.2736 1.008 0.07222
4421 233 1 14.8472 18.6573 41.6509 1.008 0.09202
4422 233 1 13.4958 19.0895 42.7059 1.008 0.09202
4423 233 1 14.0425 20.3611 39.9509 1.008 0.10167
4424 233 1 12.8125 20.8949 41.0693 1.008 0.10167
4425 233 1 12.1767 19.2307 39.1498 1.008 0.08773
4426 233 1 12.9555 17.9892 40.1561 1.008 0.08773
4427 233 1 11.5845 18.9017 40.7655 1.008 0.08773
4428 234 4 30.4048 13.5327 29.5218 15.999 -0.35515
4429 234 2 29.8981 12.2522 29.8427 12.011 0.03297
4430 234 2 29.4192 14.554 29.6369 12.011 0.01762
4431 234 2 28.3029 14.3691 28.5984 12.011 -0.23743
4432 234 2 27.3066 15.5185 28.6075 12.011 -0.24423
4433 234 3 31.0303 11.258 29.8041 12.011 -0.1837
4434 234 3 31.1052 10.2343 28.9493 12.011 -0.23415
4435 234 1 30.3363 10.0406 28.2193 1.008 0.12909
4436 234 1 31.9506 9.5608 28.9582 1.008 0.12909
4437 234 1 31.824 11.3997 30.5187 1.008 0.15086
4438 234 1 29.1688 11.9362 29.1037 1.008 0.07222
4439 234 1 29.411 12.2567 30.8207 1.008 0.07222
4440 234 1 29.0076 14.5836 30.6533 1.008 0.09202
4441 234 1 29.9084 15.5165 29.4603 1.008 0.09202
4442 234 1 27.7265 13.4638 28.7831 1.008 0.10167
4443 234 1 28.7374 14.2741 27.6007 1.008 0.10167
4444 234 1 26.3772 15.1997 28.1471 1.008 0.08773
4445 234 1 27.0885 15.8396 29.6279 1.008 0.08773
4446 234 1 27.673 16.3771 28.0457 1.008 0.08773
4447 235 4 28.7438 32.8635 25.5393 15.999 -0.35515
4448 235 2 28.6369 33.2457 26.8955 12.011 0.03297
4449 235 2 29.5172 31.6788 25.3785 12.011 0.01762
4450 235 2 30.9778 31.9026 25.7908 12.011 -0.23743
4451 235 2 31.8968 30.7237 25.4937 12.011 -0.24423
4452 235 3 27.6791 34.4012 26.9742 12.011 -0.1837
4453 235 3 27.9964 35.5837 27.5068 12.011 -0.23415
4454 235 1 28.9805 35.7583 27.9112 1.008 0.12909
4455 235 1 27.2847 36.3944 27.5602 1.008 0.12909
4456 235 1 26.6837 34.2403 26.6006 1.008 0.15086
4457 235 1 29.591 33.5873 27.2942 1.008 0.07222
4458 235 1 28.3035 32.4052 27.5091 1.008 0.07222
4459 235 1 29.0833 30.8531 25.9479 1.008 0.09202
4460 235 1 29.4866 31.3955 24.3252 1.008 0.09202
4461 235 1 31.0796 32.1347 26.8521 1.008 0.10167
4462 235 1 31.3499 32.7674 25.2458 1.008 0.10167
4463 235 1 32.7738 30.7627 26.1381 1.008 0.08773
4464 235 1 31.3941 29.7723 25.6627 1.008 0.08773
4465 235 1 32.2379 30.7546 24.4604 1.008 0.08773
4466 236 4 3.05298 33.9787 10.3883 15.999 -0.35515
4467 236 2 2.62851 33.1868 9.29267 12.011 0.03297
4468 236 2 4.09262 33.3661 11.1214 12.011 0.01762
4469 236 2 3.43767 32.3942 12.0741 12.011 -0.23743
4470 236 2 4.46142 31.8547 13.063 12.011 -0.24423
4471 236 3 1.83855 34.0685 8.36543 12.011 -0.1837
4472 236 3 0.523245 33.971 8.20524 12.011 -0.23415
4473 236 1 -0.0714242 33.2746 8.78258 1.008 0.12909
4474 236 1 0.0216504 34.5678 7.46213 1.008 0.12909
4475 236 1 2.39245 34.7357 7.75356 1.008 0.15086
4476 236 1 1.98787 32.368 9.67252 1.008 0.07222
4477 236 1 3.49235 32.7415 8.75839 1.008 0.07222
4478 236 1 4.83829 32.8747 10.4868 1.008 0.09202
4479 236 1 4.61844 34.125 11.6963 1.008 0.09202
4480 236 1 2.98484 31.5703 11.51 1.008 0.10167
4481 236 1 2.61889 32.917 12.5908 1.008 0.10167
4482 236 1 4.11958 30.9209 13.502 1.008 0.08773
4483 236 1 5.41538 31.6829 12.5629 1.008 0.08773
4484 236 1 4.62091 32.5831 13.8566 1.008 0.08773
4485 237 4 42.1976 5.86253 24.0627 15.999 -0.35515
4486 237 2 41.0533 6.51757 24.5697 12.011 0.03297
4487 237 2 41.9042 4.54924 23.6183 12.011 0.01762
4488 237 2 41.5677 3.63856 24.8079 12.011 -0.23743
4489 237 2 41.3838 2.18272 24.3984 12.011 -0.24423
4490 237 3 41.398 7.9556 24.819 12.011 -0.1837
4491 237 3 41.4868 8.46205 26.0464 12.011 -0.23415
4492 237 1 41.3572 7.79925 26.8789 1.008 0.12909
4493 237 1 41.7087 9.50004 26.2483 1.008 0.12909
4494 237 1 41.5772 8.57983 23.9641 1.008 0.15086
4495 237 1 40.7596 6.08394 25.5255 1.008 0.07222
4496 237 1 40.2014 6.44666 23.8871 1.008 0.07222
4497 237 1 41.0859 4.57039 22.8877 1.008 0.09202
4498 237 1 42.7934 4.17307 23.107 1.008 0.09202
4499 237 1 40.6378 3.95133 25.272 1.008 0.10167
4500 237 1 42.3444 3.72029 25.573 1.008 0.10167
4501 237 1 40.7895 1.64419 25.1342 1.008 0.08773
4502 237 1 40.8659 2.12041 23.4394 1.008 0.08773
4503 237 1 42.344 1.67749 24.2957 1.008 0.08773
4504 238 4 27.0364 41.8107 11.1395 15.999 -0.35515
4505 238 2 27.6202 41.4053 9.92356 12.011 0.03297
4506 238 2 26.2548 42.9911 11.0485 12.011 0.01762
4507 238 2 27.1184 44.1879 10.6319 12.011 -0.23743
4508 238 2 26.3676 45.5106 10.6455 12.011 -0.24423
4509 238 3 28.3571 40.1253 10.199 12.011 -0.1837
4510 238 3 29.6754 39.9726 10.0462 12.011 -0.23415
4511 238 1 30.3024 40.7869 9.70839 1.008 0.12909
4512 238 1 30.1529 39.0144 10.2203 1.008 0.12909
4513 238 1 27.7662 39.2829 10.5113 1.008 0.15086
4514 238 1 28.3633 42.1189 9.58373 1.008 0.07222
4515 238 1 26.865 41.2846 9.14248 1.008 0.07222
4516 238 1 25.4231 42.8454 10.353 1.008 0.09202
4517 238 1 25.8305 43.177 12.0393 1.008 0.09202
4518 238 1 27.4633 44.0569 9.61072 1.008 0.10167
4519 238 1 28.0013 44.244 11.275 1.008 0.10167
4520 238 1 26.8605 46.2401 10.0042 1.008 0.08773
4521 238 1 25.3603 45.357 10.264 1.008 0.08773
4522 238 1 26.3008 45.9221 11.6527 1.008 0.08773
4523 239 4 41.839 44.2696 41.0662 15.999 -0.35515
4524 239 2 42.2331 43.6596 42.2795 12.011 0.03297
4525 239 2 40.4758 44.6723 41.0833 12.011 0.01762
4526 239 2 39.5448 43.4516 41.1345 12.011 -0.23743
4527 239 2 38.0712 43.8266 41.0219 12.011 -0.24423
4528 239 3 43.7151 43.4116 42.2265 12.011 -0.1837
4529 239 3 44.2579 42.1922 42.2136 12.011 -0.23415
4530 239 1 43.6435 41.3054 42.2482 1.008 0.12909
4531 239 1 45.3293 42.0574 42.1559 1.008 0.12909
4532 239 1 44.3542 44.2785 42.191 1.008 0.15086
4533 239 1 41.754 42.6903 42.3941 1.008 0.07222
4534 239 1 41.9692 44.2753 43.1431 1.008 0.07222
4535 239 1 40.2888 45.3361 41.9327 1.008 0.09202
4536 239 1 40.2773 45.2472 40.1741 1.008 0.09202
4537 239 1 39.6573 42.9097 42.0725 1.008 0.10167
4538 239 1 39.8141 42.752 40.3411 1.008 0.10167
4539 239 1 37.4421 43.0353 41.426 1.008 0.08773
4540 239 1 37.8637 44.7395 41.5828 1.008 0.08773
4541 239 1 37.7831 43.9908 39.984 1.008 0.08773
4542 240 4 28.9402 40.0443 28.0717 15.999 -0.35515
4543 240 2 27.7814 40.768 27.6976 12.011 0.03297
4544 240 2 28.8569 39.4112 29.3381 12.011 0.01762
4545 240 2 28.9276 40.4872 30.4174 12.011 -0.23743
4546 240 2 28.9743 39.9242 31.8289 12.011 -0.24423
4547 240 3 27.9034 41.1398 26.2373 12.011 -0.1837
4548 240 3 28.0186 42.3916 25.7831 12.011 -0.23415
4549 240 1 28.0124 43.2405 26.4524 1.008 0.12909
4550 240 1 28.1343 42.6058 24.7249 1.008 0.12909
4551 240 1 27.9095 40.3381 25.5191 1.008 0.15086
4552 240 1 27.7279 41.6928 28.2712 1.008 0.07222
4553 240 1 26.8673 40.1899 27.8733 1.008 0.07222
4554 240 1 27.9496 38.7993 29.4202 1.008 0.09202
4555 240 1 29.7154 38.7361 29.4383 1.008 0.09202
4556 240 1 28.0636 41.1435 30.3515 1.008 0.10167
4557 240 1 29.8208 41.0886 30.2503 1.008 0.10167
4558 240 1 28.6489 40.6788 32.5455 1.008 0.08773
4559 240 1 28.3194 39.0532 31.9314 1.008 0.08773
4560 240 1 29.9913 39.6255 32.0942 1.008 0.08773
4561 241 4 3.93933 18.8218 50.1723 15.999 -0.35515
4562 241 2 2.5981 18.7294 50.6059 12.011 0.03297
4563 241 2 4.66134 19.8496 50.8438 12.011 0.01762
4564 241 2 4.09881 21.2335 50.4815 12.011 -0.23743
4565 241 2 4.89269 22.4062 51.042 12.011 -0.24423
4566 241 3 1.96946 17.5171 49.9746 12.011 -0.1837
4567 241 3 0.945536 17.5792 49.1201 12.011 -0.23415
4568 241 1 0.512071 18.5268 48.8377 1.008 0.12909
4569 241 1 0.527039 16.6856 48.6787 1.008 0.12909
4570 241 1 2.38783 16.5591 50.2352 1.008 0.15086
4571 241 1 2.02172 19.5904 50.276 1.008 0.07222
4572 241 1 2.54818 18.6758 51.695 1.008 0.07222
4573 241 1 4.66459 19.6915 51.9293 1.008 0.09202
4574 241 1 5.69764 19.7885 50.506 1.008 0.09202
4575 241 1 3.06527 21.3552 50.8022 1.008 0.10167
4576 241 1 4.10257 21.3135 49.395 1.008 0.10167
4577 241 1 4.27028 23.2961 51.1233 1.008 0.08773
4578 241 1 5.29323 22.1727 52.0287 1.008 0.08773
4579 241 1 5.71419 22.6425 50.3711 1.008 0.08773
4580 242 4 31.0338 40.8224 17.5536 15.999 -0.35515
4581 242 2 31.1475 41.699 18.6518 12.011 0.03297
4582 242 2 31.9718 39.76 17.6386 12.011 0.01762
4583 242 2 33.3976 40.2951 17.4758 12.011 -0.23743
4584 242 2 34.3879 39.1616 17.2862 12.011 -0.24423
4585 242 3 30.0027 42.6731 18.6145 12.011 -0.1837
4586 242 3 30.151 43.9767 18.3648 12.011 -0.23415
4587 242 1 31.1253 44.4057 18.1827 1.008 0.12909
4588 242 1 29.297 44.6396 18.3359 1.008 0.12909
4589 242 1 29.0201 42.2721 18.7959 1.008 0.15086
4590 242 1 32.0647 42.2695 18.5565 1.008 0.07222
4591 242 1 31.1816 41.1571 19.6011 1.008 0.07222
4592 242 1 31.884 39.2143 18.5859 1.008 0.09202
4593 242 1 31.7824 39.0517 16.8307 1.008 0.09202
4594 242 1 33.7147 40.8581 18.3579 1.008 0.10167
4595 242 1 33.462 41.0003 16.6409 1.008 0.10167
4596 242 1 35.3829 39.5167 17.5054 1.008 0.08773
4597 242 1 34.1567 38.3586 17.9818 1.008 0.08773
4598 242 1 34.3741 38.7741 16.2697 1.008 0.08773
4599 243 4 14.4684 24.5762 47.4138 15.999 -0.35515
4600 243 2 14.5691 23.7818 48.5743 12.011 0.03297
4601 243 2 14.007 25.8925 47.6728 12.011 0.01762
4602 243 2 12.5383 25.8709 48.1053 12.011 -0.23743
4603 243 2 11.9665 27.2737 48.2714 12.011 -0.24423
4604 243 3 15.2286 22.4879 48.1783 12.011 -0.1837
4605 243 3 14.6004 21.3111 48.2019 12.011 -0.23415
4606 243 1 13.5689 21.2388 48.5169 1.008 0.12909
4607 243 1 15.0974 20.3971 47.9001 1.008 0.12909
4608 243 1 16.2563 22.5421 47.8484 1.008 0.15086
4609 243 1 13.5771 23.5418 48.9558 1.008 0.07222
4610 243 1 15.1375 24.2879 49.3588 1.008 0.07222
4611 243 1 14.6414 26.3997 48.4121 1.008 0.09202
4612 243 1 14.0937 26.4509 46.7377 1.008 0.09202
4613 243 1 12.4208 25.3565 49.0563 1.008 0.10167
4614 243 1 11.9527 25.3112 47.3725 1.008 0.10167
4615 243 1 11.1045 27.2605 48.9359 1.008 0.08773
4616 243 1 12.7148 27.9515 48.6912 1.008 0.08773
4617 243 1 11.6418 27.6791 47.3122 1.008 0.08773
4618 244 4 15.3732 25.1951 12.7334 15.999 -0.35515
4619 244 2 15.2016 24.1824 11.7619 12.011 0.03297
4620 244 2 15.1673 24.7198 14.0574 12.011 0.01762
4621 244 2 13.7026 24.3085 14.2754 12.011 -0.23743
4622 244 2 13.4205 23.9094 15.7194 12.011 -0.24423
4623 244 3 15.5651 24.7408 10.4145 12.011 -0.1837
4624 244 3 14.691 24.8895 9.41736 12.011 -0.23415
4625 244 1 13.6533 24.6113 9.52482 1.008 0.12909
4626 244 1 15.0065 25.3054 8.47351 1.008 0.12909
4627 244 1 16.591 25.0362 10.2649 1.008 0.15086
4628 244 1 14.1612 23.8744 11.7023 1.008 0.07222
4629 244 1 15.8057 23.303 11.9944 1.008 0.07222
4630 244 1 15.8473 23.886 14.2732 1.008 0.09202
4631 244 1 15.4212 25.5313 14.7469 1.008 0.09202
4632 244 1 13.4369 23.4529 13.6586 1.008 0.10167
4633 244 1 13.0411 25.1273 13.9805 1.008 0.10167
4634 244 1 12.5344 23.2806 15.7823 1.008 0.08773
4635 244 1 14.2589 23.3492 16.137 1.008 0.08773
4636 244 1 13.2582 24.7862 16.3466 1.008 0.08773
4637 245 4 12.8881 26.1476 36.2343 15.999 -0.35515
4638 245 2 11.8196 26.6788 35.4923 12.011 0.03297
4639 245 2 12.8064 24.7448 36.4188 12.011 0.01762
4640 245 2 11.5284 24.2782 37.1146 12.011 -0.23743
4641 245 2 11.4654 22.7575 37.2524 12.011 -0.24423
4642 245 3 12.1525 28.1227 35.295 12.011 -0.1837
4643 245 3 11.4148 29.0621 35.8674 12.011 -0.23415
4644 245 1 10.5709 28.7144 36.4346 1.008 0.12909
4645 245 1 11.5854 30.133 35.7923 1.008 0.12909
4646 245 1 13.0068 28.3917 34.7013 1.008 0.15086
4647 245 1 10.893 26.6271 36.0642 1.008 0.07222
4648 245 1 11.6572 26.1774 34.5421 1.008 0.07222
4649 245 1 12.8844 24.2821 35.4452 1.008 0.09202
4650 245 1 13.6834 24.4044 36.974 1.008 0.09202
4651 245 1 10.6314 24.5747 36.5772 1.008 0.10167
4652 245 1 11.4799 24.7582 38.0921 1.008 0.10167
4653 245 1 10.435 22.4479 37.435 1.008 0.08773
4654 245 1 11.8025 22.2616 36.3393 1.008 0.08773
4655 245 1 12.0868 22.4065 38.0819 1.008 0.08773
4656 246 4 22.583 13.3021 27.9355 15.999 -0.35515
4657 246 2 23.7878 13.6387 28.5891 12.011 0.03297
4658 246 2 22.7481 12.3207 26.9183 12.011 0.01762
4659 246 2 23.585 12.8516 25.7346 12.011 -0.23743
4660 246 2 23.7281 11.8607 24.5851 12.011 -0.24423
4661 246 3 23.4801 14.5721 29.7341 12.011 -0.1837
4662 246 3 23.9263 15.8246 29.801 12.011 -0.23415
4663 246 1 24.5413 16.2227 29.0101 1.008 0.12909
4664 246 1 23.6565 16.4893 30.6108 1.008 0.12909
4665 246 1 22.842 14.2013 30.5206 1.008 0.15086
4666 246 1 24.4398 14.1678 27.9021 1.008 0.07222
4667 246 1 24.3139 12.7512 28.9406 1.008 0.07222
4668 246 1 23.1884 11.4086 27.3399 1.008 0.09202
4669 246 1 21.7463 12.0617 26.5654 1.008 0.09202
4670 246 1 24.5896 13.1109 26.0569 1.008 0.10167
4671 246 1 23.1424 13.7638 25.3311 1.008 0.10167
4672 246 1 24.5894 12.1063 23.9669 1.008 0.08773
4673 246 1 23.8586 10.8434 24.9592 1.008 0.08773
4674 246 1 22.847 11.8859 23.9447 1.008 0.08773
4675 247 4 2.67244 5.14043 38.0352 15.999 -0.35515
4676 247 2 1.98511 5.59026 36.8845 12.011 0.03297
4677 247 2 1.91716 5.31733 39.2282 12.011 0.01762
4678 247 2 1.7007 6.80751 39.5358 12.011 -0.23743
4679 247 2 0.997934 7.03233 40.8692 12.011 -0.24423
4680 247 3 2.80545 5.25107 35.6695 12.011 -0.1837
4681 247 3 3.34711 6.1695 34.866 12.011 -0.23415
4682 247 1 3.21529 7.22469 35.0492 1.008 0.12909
4683 247 1 3.94243 5.88317 34.0098 1.008 0.12909
4684 247 1 2.95918 4.20485 35.4575 1.008 0.15086
4685 247 1 1.87794 6.67161 36.8977 1.008 0.07222
4686 247 1 0.988304 5.14939 36.82 1.008 0.07222
4687 247 1 0.95767 4.78978 39.1558 1.008 0.09202
4688 247 1 2.47634 4.85903 40.05 1.008 0.09202
4689 247 1 1.0839 7.28285 38.7766 1.008 0.10167
4690 247 1 2.66047 7.3305 39.5312 1.008 0.10167
4691 247 1 0.523848 8.01175 40.8964 1.008 0.08773
4692 247 1 0.223826 6.28041 41.0319 1.008 0.08773
4693 247 1 1.70221 6.97564 41.6997 1.008 0.08773
4694 248 4 2.63273 43.0901 32.98 15.999 -0.35515
4695 248 2 2.73175 43.0409 31.5688 12.011 0.03297
4696 248 2 3.6948 42.4014 33.6381 12.011 0.01762
4697 248 2 3.67727 40.9009 33.3047 12.011 -0.23743
4698 248 2 4.69575 40.0425 34.0578 12.011 -0.24423
4699 248 3 1.65621 43.8907 30.9451 12.011 -0.1837
4700 248 3 0.725754 43.4065 30.117 12.011 -0.23415
4701 248 1 0.712608 42.3606 29.842 1.008 0.12909
4702 248 1 51.9437 44.0465 29.7025 1.008 0.12909
4703 248 1 1.64827 44.9367 31.1956 1.008 0.15086
4704 248 1 2.54209 42.0347 31.2193 1.008 0.07222
4705 248 1 3.72667 43.3322 31.2312 1.008 0.07222
4706 248 1 4.65913 42.8369 33.3759 1.008 0.09202
4707 248 1 3.5615 42.5169 34.7136 1.008 0.09202
4708 248 1 3.87128 40.7308 32.2443 1.008 0.10167
4709 248 1 2.66702 40.5307 33.5035 1.008 0.10167
4710 248 1 4.89815 39.1296 33.5002 1.008 0.08773
4711 248 1 5.63803 40.5701 34.1824 1.008 0.08773
4712 248 1 4.32467 39.7658 35.0417 1.008 0.08773
4713 249 4 27.1929 15.4713 11.4338 15.999 -0.35515
4714 249 2 27.3401 15.9501 10.1163 12.011 0.03297
4715 249 2 27.3427 14.0659 11.4909 12.011 0.01762
4716 249 2 26.2113 13.3623 10.7272 12.011 -0.23743
4717 249 2 26.2897 11.8505 10.8687 12.011 -0.24423
4718 249 3 27.2499 17.439 10.1808 12.011 -0.1837
4719 249 3 26.2259 18.1 9.65031 12.011 -0.23415
4720 249 1 25.4095 17.6122 9.14684 1.008 0.12909
4721 249 1 26.1881 19.1714 9.66183 1.008 0.12909
4722 249 1 28.0592 17.9747 10.6558 1.008 0.15086
4723 249 1 26.5142 15.6367 9.47924 1.008 0.07222
4724 249 1 28.2799 15.6317 9.65735 1.008 0.07222
4725 249 1 28.3236 13.7778 11.097 1.008 0.09202
4726 249 1 27.313 13.7714 12.5425 1.008 0.09202
4727 249 1 26.2529 13.5689 9.66115 1.008 0.10167
4728 249 1 25.2431 13.725 11.083 1.008 0.10167
4729 249 1 25.7571 11.3573 10.0587 1.008 0.08773
4730 249 1 27.3284 11.5187 10.8431 1.008 0.08773
4731 249 1 25.8556 11.5305 11.8141 1.008 0.08773
4732 250 4 44.2875 44.9336 11.4125 15.999 -0.35515
4733 250 2 43.7119 44.6055 10.1641 12.011 0.03297
4734 250 2 44.6604 43.7833 12.159 12.011 0.01762
4735 250 2 43.4223 42.9799 12.5857 12.011 -0.23743
4736 250 2 43.7743 41.8094 13.4964 12.011 -0.24423
4737 250 3 43.4783 45.887 9.41369 12.011 -0.1837
4738 250 3 42.2616 46.3579 9.13393 12.011 -0.23415
4739 250 1 41.3703 45.8181 9.41765 1.008 0.12909
4740 250 1 42.1314 47.2938 8.60997 1.008 0.12909
4741 250 1 44.3498 46.4442 9.10738 1.008 0.15086
4742 250 1 42.7402 44.1368 10.2987 1.008 0.07222
4743 250 1 44.3452 43.9208 9.59547 1.008 0.07222
4744 250 1 45.3555 43.162 11.5806 1.008 0.09202
4745 250 1 45.1966 44.1221 13.0509 1.008 0.09202
4746 250 1 42.9071 42.56 11.724 1.008 0.10167
4747 250 1 42.7085 43.6378 13.0883 1.008 0.10167
4748 250 1 42.9901 41.0554 13.4767 1.008 0.08773
4749 250 1 44.7041 41.3364 13.1765 1.008 0.08773
4750 250 1 43.9008 42.1416 14.5266 1.008 0.08773
4751 251 4 25.2673 37.2862 11.5031 15.999 -0.35515
4752 251 2 25.2864 37.656 10.1465 12.011 0.03297
4753 251 2 25.8566 36.0105 11.7293 12.011 0.01762
4754 251 2 24.9816 34.8862 11.2162 12.011 -0.23743
4755 251 2 25.5352 33.5556 11.7109 12.011 -0.24423
4756 251 3 24.7716 39.0689 10.0614 12.011 -0.1837
4757 251 3 23.6266 39.3946 9.45568 12.011 -0.23415
4758 251 1 23.0094 38.6359 8.99224 1.008 0.12909
4759 251 1 23.2826 40.4223 9.41526 1.008 0.12909
4760 251 1 25.3594 39.8461 10.5269 1.008 0.15086
4761 251 1 24.6165 37.0133 9.57848 1.008 0.07222
4762 251 1 26.2886 37.5665 9.7228 1.008 0.07222
4763 251 1 26.8929 35.9762 11.3551 1.008 0.09202
4764 251 1 25.9127 35.8181 12.7997 1.008 0.09202
4765 251 1 24.9482 34.8982 10.1334 1.008 0.10167
4766 251 1 23.972 35.0393 11.5928 1.008 0.10167
4767 251 1 25.2263 32.7342 11.0638 1.008 0.08773
4768 251 1 26.6321 33.579 11.7406 1.008 0.08773
4769 251 1 25.199 33.35 12.7314 1.008 0.08773
4770 252 4 6.12588 26.8307 14.5112 15.999 -0.35515
4771 252 2 5.9793 26.6176 13.1204 12.011 0.03297
4772 252 2 6.20829 28.2105 14.8478 12.011 0.01762
4773 252 2 7.49481 28.8398 14.2904 12.011 -0.23743
4774 252 2 7.67773 30.286 14.7341 12.011 -0.24423
4775 252 3 5.7682 25.1476 12.8794 12.011 -0.1837
4776 252 3 6.63037 24.3763 12.2094 12.011 -0.23415
4777 252 1 7.5398 24.7802 11.7917 1.008 0.12909
4778 252 1 6.44372 23.3196 12.0761 1.008 0.12909
4779 252 1 4.87104 24.7103 13.2864 1.008 0.15086
4780 252 1 6.88581 26.8984 12.5901 1.008 0.07222
4781 252 1 5.15118 27.2047 12.717 1.008 0.07222
4782 252 1 5.32082 28.7467 14.489 1.008 0.09202
4783 252 1 6.2144 28.2884 15.9395 1.008 0.09202
4784 252 1 7.49232 28.8457 13.2023 1.008 0.10167
4785 252 1 8.3597 28.2468 14.6 1.008 0.10167
4786 252 1 8.34555 30.8152 14.057 1.008 0.08773
4787 252 1 6.72225 30.8121 14.7428 1.008 0.08773
4788 252 1 8.10108 30.3394 15.7371 1.008 0.08773
4789 253 4 36.8003 41.3685 17.7201 15.999 -0.35515
4790 253 2 36.5639 42.7557 17.6217 12.011 0.03297
4791 253 2 37.8293 40.9062 16.853 12.011 0.01762
4792 253 2 37.4927 41.1155 15.3696 12.011 -0.23743
4793 253 2 38.5723 40.5258 14.4678 12.011 -0.24423
4794 253 3 35.4936 43.1349 18.6075 12.011 -0.1837
4795 253 3 34.3229 43.6685 18.2467 12.011 -0.23415
4796 253 1 34.0788 43.8373 17.209 1.008 0.12909
4797 253 1 33.5746 43.9259 18.9843 1.008 0.12909
4798 253 1 35.6896 42.9563 19.6522 1.008 0.15086
4799 253 1 36.1877 43.018 16.6347 1.008 0.07222
4800 253 1 37.4797 43.3178 17.8092 1.008 0.07222
4801 253 1 38.7829 41.3777 17.1196 1.008 0.09202
4802 253 1 37.9467 39.8321 17.013 1.008 0.09202
4803 253 1 37.4204 42.1721 15.1243 1.008 0.10167
4804 253 1 36.5201 40.673 15.1351 1.008 0.10167
4805 253 1 38.568 41.0041 13.4886 1.008 0.08773
4806 253 1 39.5616 40.6735 14.9088 1.008 0.08773
4807 253 1 38.4264 39.4539 14.325 1.008 0.08773
4808 254 4 8.47149 28.2256 42.9153 15.999 -0.35515
4809 254 2 7.49175 27.2943 43.3316 12.011 0.03297
4810 254 2 7.92459 29.5033 42.6093 12.011 0.01762
4811 254 2 6.98952 29.4268 41.3924 12.011 -0.23743
4812 254 2 6.49604 30.7956 40.9364 12.011 -0.24423
4813 254 3 8.1855 26.0318 43.765 12.011 -0.1837
4814 254 3 8.02123 24.8548 43.1559 12.011 -0.23415
4815 254 1 7.35725 24.7456 42.3128 1.008 0.12909
4816 254 1 8.55759 23.9737 43.482 1.008 0.12909
4817 254 1 8.85391 26.101 44.6072 1.008 0.15086
4818 254 1 6.83772 27.0272 42.505 1.008 0.07222
4819 254 1 6.87584 27.7 44.1375 1.008 0.07222
4820 254 1 7.39487 29.9122 43.4783 1.008 0.09202
4821 254 1 8.75539 30.1802 42.3879 1.008 0.09202
4822 254 1 6.10626 28.8374 41.623 1.008 0.10167
4823 254 1 7.49535 28.9217 40.5676 1.008 0.10167
4824 254 1 5.59423 30.6988 40.3359 1.008 0.08773
4825 254 1 6.26282 31.4231 41.7982 1.008 0.08773
4826 254 1 7.24878 31.3096 40.3375 1.008 0.08773
4827 255 4 41.6228 27.5298 47.3779 15.999 -0.35515
4828 255 2 41.8676 28.8913 47.6689 12.011 0.03297
4829 255 2 42.6498 26.9477 46.5848 12.011 0.01762
4830 255 2 42.713 27.5608 45.18 12.011 -0.23743
4831 255 2 43.7387 26.8579 44.2961 12.011 -0.24423
4832 255 3 40.7853 29.3843 48.5902 12.011 -0.1837
4833 255 3 39.9009 30.3245 48.2538 12.011 -0.23415
4834 255 1 39.9202 30.7882 47.2807 1.008 0.12909
4835 255 1 39.1337 30.6385 48.9475 1.008 0.12909
4836 255 1 40.7276 28.9406 49.5696 1.008 0.15086
4837 255 1 41.8182 29.4934 46.7646 1.008 0.07222
4838 255 1 42.8527 29.0325 48.1185 1.008 0.07222
4839 255 1 43.6195 27.045 47.0861 1.008 0.09202
4840 255 1 42.4318 25.8795 46.4928 1.008 0.09202
4841 255 1 42.9927 28.6123 45.2159 1.008 0.10167
4842 255 1 41.7252 27.5144 44.7149 1.008 0.10167
4843 255 1 44.0366 27.494 43.4648 1.008 0.08773
4844 255 1 44.6365 26.6065 44.865 1.008 0.08773
4845 255 1 43.3325 25.9345 43.8824 1.008 0.08773
4846 256 4 12.5743 34.7482 31.8711 15.999 -0.35515
4847 256 2 13.3351 33.6112 31.5164 12.011 0.03297
4848 256 2 13.3623 35.9297 31.9583 12.011 0.01762
4849 256 2 14.377 35.8398 33.1079 12.011 -0.23743
4850 256 2 15.1351 37.1456 33.307 12.011 -0.24423
4851 256 3 12.397 32.4478 31.3377 12.011 -0.1837
4852 256 3 12.4123 31.3613 32.1144 12.011 -0.23415
4853 256 1 13.1198 31.2583 32.9229 1.008 0.12909
4854 256 1 11.7083 30.5538 31.9643 1.008 0.12909
4855 256 1 11.6751 32.5175 30.5399 1.008 0.15086
4856 256 1 14.0223 33.3418 32.3144 1.008 0.07222
4857 256 1 13.9176 33.7919 30.6106 1.008 0.07222
4858 256 1 13.87 36.122 31.0052 1.008 0.09202
4859 256 1 12.6879 36.7726 32.1429 1.008 0.09202
4860 256 1 15.1215 35.0677 32.9224 1.008 0.10167
4861 256 1 13.8662 35.5667 34.035 1.008 0.10167
4862 256 1 16.0681 36.9742 33.8398 1.008 0.08773
4863 256 1 15.3663 37.614 32.3486 1.008 0.08773
4864 256 1 14.542 37.8519 33.8831 1.008 0.08773
4865 257 4 30.205 40.0454 45.3529 15.999 -0.35515
4866 257 2 31.023 39.8767 46.4965 12.011 0.03297
4867 257 2 29.2969 41.1366 45.4734 12.011 0.01762
4868 257 2 28.2683 40.8942 46.5904 12.011 -0.23743
4869 257 2 27.238 42.0151 46.6868 12.011 -0.24423
4870 257 3 32.0487 38.8074 46.2335 12.011 -0.1837
4871 257 3 32.1058 37.6568 46.9058 12.011 -0.23415
4872 257 1 31.4034 37.4375 47.6958 1.008 0.12909
4873 257 1 32.8306 36.8939 46.6581 1.008 0.12909
4874 257 1 32.7559 38.9992 45.4418 1.008 0.15086
4875 257 1 30.4324 39.544 47.3443 1.008 0.07222
4876 257 1 31.5219 40.8046 46.7712 1.008 0.07222
4877 257 1 29.843 42.0718 45.644 1.008 0.09202
4878 257 1 28.7714 41.2454 44.5186 1.008 0.09202
4879 257 1 28.7504 40.8323 47.5635 1.008 0.10167
4880 257 1 27.7634 39.9381 46.4267 1.008 0.10167
4881 257 1 26.7643 42.0265 47.6667 1.008 0.08773
4882 257 1 27.7032 42.9893 46.5248 1.008 0.08773
4883 257 1 26.4562 41.8914 45.9386 1.008 0.08773
4884 258 4 47.7038 7.08639 32.5667 15.999 -0.35515
4885 258 2 48.8512 7.43926 31.815 12.011 0.03297
4886 258 2 46.4899 7.33615 31.8654 12.011 0.01762
4887 258 2 46.3173 8.84562 31.6639 12.011 -0.23743
4888 258 2 44.9842 9.24144 31.0726 12.011 -0.24423
4889 258 3 50.0734 6.97668 32.5592 12.011 -0.1837
4890 258 3 50.9983 7.80552 33.0527 12.011 -0.23415
4891 258 1 50.9082 8.87456 32.9376 1.008 0.12909
4892 258 1 51.8641 7.42866 33.5792 1.008 0.12909
4893 258 1 50.1921 5.91425 32.6834 1.008 0.15086
4894 258 1 48.939 8.5174 31.7057 1.008 0.07222
4895 258 1 48.8179 7.00234 30.8145 1.008 0.07222
4896 258 1 46.4708 6.79942 30.9072 1.008 0.09202
4897 258 1 45.6605 6.9569 32.4718 1.008 0.09202
4898 258 1 47.0868 9.25174 31.0118 1.008 0.10167
4899 258 1 46.4164 9.33282 32.6313 1.008 0.10167
4900 258 1 45.0306 10.2238 30.61 1.008 0.08773
4901 258 1 44.6831 8.51202 30.319 1.008 0.08773
4902 258 1 44.2332 9.29979 31.8574 1.008 0.08773
4903 259 4 17.6383 31.6556 43.0337 15.999 -0.35515
4904 259 2 18.0741 32.2374 44.2404 12.011 0.03297
4905 259 2 16.3878 32.1909 42.6088 12.011 0.01762
4906 259 2 15.2465 31.8644 43.572 12.011 -0.23743
4907 259 2 13.9078 32.3402 43.0381 12.011 -0.24423
4908 259 3 19.4361 31.6956 44.56 12.011 -0.1837
4909 259 3 19.6745 30.8642 45.5773 12.011 -0.23415
4910 259 1 18.8839 30.5434 46.2395 1.008 0.12909
4911 259 1 20.6677 30.4715 45.7535 1.008 0.12909
4912 259 1 20.2473 31.9878 43.9138 1.008 0.15086
4913 259 1 17.4248 31.935 45.0524 1.008 0.07222
4914 259 1 18.0714 33.327 44.1913 1.008 0.07222
4915 259 1 16.4617 33.2764 42.43 1.008 0.09202
4916 259 1 16.1396 31.7037 41.6637 1.008 0.09202
4917 259 1 15.3846 32.301 44.5533 1.008 0.10167
4918 259 1 15.2104 30.7867 43.684 1.008 0.10167
4919 259 1 13.1602 32.4198 43.8257 1.008 0.08773
4920 259 1 14.008 33.3147 42.5503 1.008 0.08773
4921 259 1 13.5426 31.627 42.2966 1.008 0.08773
4922 260 4 33.6147 9.38312 37.691 15.999 -0.35515
4923 260 2 33.1187 8.07082 37.5109 12.011 0.03297
4924 260 2 33.4266 9.85681 39.0193 12.011 0.01762
4925 260 2 31.9314 10.0189 39.3352 12.011 -0.23743
4926 260 2 31.6739 10.6813 40.6826 12.011 -0.24423
4927 260 3 33.4947 7.591 36.1354 12.011 -0.1837
4928 260 3 32.6029 7.31737 35.1798 12.011 -0.23415
4929 260 1 31.5425 7.42528 35.3516 1.008 0.12909
4930 260 1 32.9186 6.98352 34.2009 1.008 0.12909
4931 260 1 34.5457 7.47083 35.9287 1.008 0.15086
4932 260 1 32.0327 8.06126 37.5624 1.008 0.07222
4933 260 1 33.5025 7.39572 38.2789 1.008 0.07222
4934 260 1 33.9102 9.1879 39.742 1.008 0.09202
4935 260 1 33.9176 10.8309 39.0984 1.008 0.09202
4936 260 1 31.4137 9.06159 39.3453 1.008 0.10167
4937 260 1 31.464 10.6113 38.5513 1.008 0.10167
4938 260 1 30.6633 10.4724 41.029 1.008 0.08773
4939 260 1 32.3737 10.3083 41.4315 1.008 0.08773
4940 260 1 31.7919 11.763 40.6151 1.008 0.08773
4941 261 4 37.9707 19.9615 36.6781 15.999 -0.35515
4942 261 2 37.0049 19.5439 35.7327 12.011 0.03297
4943 261 2 39.0736 20.634 36.0873 12.011 0.01762
4944 261 2 39.8721 19.6604 35.2229 12.011 -0.23743
4945 261 2 41.1331 20.2932 34.6557 12.011 -0.24423
4946 261 3 35.8036 19.0775 36.5028 12.011 -0.1837
4947 261 3 35.3861 17.8127 36.476 12.011 -0.23415
4948 261 1 35.8867 17.0889 35.8573 1.008 0.12909
4949 261 1 34.5366 17.4871 37.0601 1.008 0.12909
4950 261 1 35.2762 19.7999 37.1069 1.008 0.15086
4951 261 1 37.3673 18.7066 35.1439 1.008 0.07222
4952 261 1 36.7452 20.3373 35.0315 1.008 0.07222
4953 261 1 38.7502 21.4916 35.4868 1.008 0.09202
4954 261 1 39.7054 21.0229 36.8916 1.008 0.09202
4955 261 1 39.2817 19.3092 34.3788 1.008 0.10167
4956 261 1 40.1343 18.7877 35.8235 1.008 0.10167
4957 261 1 41.4746 19.7489 33.7778 1.008 0.08773
4958 261 1 40.9493 21.3283 34.3631 1.008 0.08773
4959 261 1 41.9339 20.2888 35.3949 1.008 0.08773
4960 262 4 8.82138 25.2837 38.2383 15.999 -0.35515
4961 262 2 8.50242 24.643 39.4542 12.011 0.03297
4962 262 2 7.73089 26.017 37.7161 12.011 0.01762
4963 262 2 6.59762 25.0735 37.3028 12.011 -0.23743
4964 262 2 5.45175 25.8273 36.6523 12.011 -0.24423
4965 262 3 9.7503 23.9805 39.9517 12.011 -0.1837
4966 262 3 9.92761 22.6656 40.0449 12.011 -0.23415
4967 262 1 9.14887 21.9736 39.7705 1.008 0.12909
4968 262 1 10.8849 22.264 40.3503 1.008 0.12909
4969 262 1 10.5723 24.6268 40.185 1.008 0.15086
4970 262 1 7.7803 23.845 39.3142 1.008 0.07222
4971 262 1 8.12163 25.3556 40.1882 1.008 0.07222
4972 262 1 7.37635 26.7507 38.4517 1.008 0.09202
4973 262 1 8.09351 26.5645 36.8402 1.008 0.09202
4974 262 1 6.17281 24.5669 38.1653 1.008 0.10167
4975 262 1 6.97598 24.2972 36.6327 1.008 0.10167
4976 262 1 4.5156 25.2845 36.7706 1.008 0.08773
4977 262 1 5.33697 26.7995 37.1281 1.008 0.08773
4978 262 1 5.63529 25.9919 35.5916 1.008 0.08773
4979 263 4 28.1033 34.0012 20.8164 15.999 -0.35515
4980 263 2 27.7828 34.5245 22.0917 12.011 0.03297
4981 263 2 28.5916 32.6669 20.8875 12.011 0.01762
4982 263 2 29.9522 32.6085 21.6001 12.011 -0.23743
4983 263 2 30.5551 31.2112 21.5853 12.011 -0.24423
4984 263 3 27.1466 35.8747 21.9061 12.011 -0.1837
4985 263 3 27.7027 37.0111 22.331 12.011 -0.23415
4986 263 1 28.6516 37.0114 22.8448 1.008 0.12909
4987 263 1 27.2246 37.9657 22.1623 1.008 0.12909
4988 263 1 26.1987 35.9078 21.3935 1.008 0.15086
4989 263 1 28.6809 34.6764 22.6851 1.008 0.07222
4990 263 1 27.1242 33.8539 22.6478 1.008 0.07222
4991 263 1 27.8597 32.018 21.3866 1.008 0.09202
4992 263 1 28.7082 32.2954 19.8648 1.008 0.09202
4993 263 1 29.8678 32.9121 22.6414 1.008 0.10167
4994 263 1 30.6522 33.3046 21.1373 1.008 0.10167
4995 263 1 31.2867 31.1037 22.3824 1.008 0.08773
4996 263 1 29.7842 30.4523 21.7288 1.008 0.08773
4997 263 1 31.0578 31.0131 20.639 1.008 0.08773
ITEM: TIMESTEP
29
ITEM: NUMBER OF ATOMS
4997
ITEM: BOX BOUNDS pp pp pp
0.0000000000000000e+00 5.1985757000000000e+01
0.0000000000000000e+00 5.1985757000000000e+01
0.0000000000000000e+00 5.1985757000000000e+01
ITEM: ATOMS id mol type x y z mass q
1 1 4 39.1764 40.1782 9.26455 15.999 -0.35515
2 1 2 39.4606 41.1615 8.28308 12.011 0.03297
3 1 2 39.5 38.8655 8.82655 12.011 0.01762
4 1 2 38.517 38.3828 7.74589 12.011 -0.23743
5 1 2 38.6965 36.9087 7.37175 12.011 -0.24423
6 1 3 39.308 42.5383 8.88326 12.011 -0.1837
7 1 3 38.3353 43.3967 8.55576 12.011 -0.23415
8 1 1 37.5774 43.1298 7.83713 1.008 0.12909
9 1 1 38.2716 44.3749 9.00427 1.008 0.12909
10 1 1 40.0435 42.8328 9.61313 1.008 0.15086
11 1 1 38.78 41.069 7.43981 1.008 0.07222
12 1 1 40.4787 41.0536 7.91037 1.008 0.07222
13 1 1 40.5267 38.8246 8.45949 1.008 0.09202
14 1 1 39.449 38.1986 9.68717 1.008 0.09202
15 1 1 38.6394 38.9611 6.8316 1.008 0.10167
16 1 1 37.4893 38.5318 8.0815 1.008 0.10167
17 1 1 38.1975 36.6984 6.42223 1.008 0.08773
18 1 1 39.7473 36.6448 7.25116 1.008 0.08773
19 1 1 38.2599 36.2488 8.12323 1.008 0.08773
20 2 4 12.1621 25.8996 41.1689 15.999 -0.35515
21 2 2 13.2518 26.786 41.0085 12.011 0.03297
22 2 2 11.8498 25.6009 42.5213 12.011 0.01762
23 2 2 12.9175 24.6696 43.1193 12.011 -0.23743
24 2 2 12.5713 24.1668 44.5216 12.011 -0.24423
25 2 3 13.3845 27.1619 39.5589 12.011 -0.1837
26 2 3 14.4377 26.8554 38.7977 12.011 -0.23415
27 2 1 15.2721 26.269 39.146 1.008 0.12909
28 2 1 14.4558 27.2042 37.7812 1.008 0.12909
29 2 1 12.5833 27.737 39.12 1.008 0.15086
30 2 1 14.1837 26.3361 41.3475 1.008 0.07222
31 2 1 13.0797 27.7096 41.5536 1.008 0.07222
32 2 1 11.7255 26.5125 43.1082 1.008 0.09202
33 2 1 10.8854 25.0932 42.5401 1.008 0.09202
34 2 1 13.8736 25.1801 43.1898 1.008 0.10167
35 2 1 13.071 23.8064 42.4694 1.008 0.10167
36 2 1 13.4646 23.7644 45.0074 1.008 0.08773
37 2 1 12.1892 24.9691 45.1516 1.008 0.08773
38 2 1 11.8288 23.3682 44.4947 1.008 0.08773
39 3 4 15.1812 42.5677 6.32064 15.999 -0.35515
40 3 2 14.4557 42.0708 5.20839 12.011 0.03297
41 3 2 15.6794 41.5416 7.16731 12.011 0.01762
42 3 2 14.5489 40.8321 7.92516 12.011 -0.23743
43 3 2 15.0729 39.837 8.96328 12.011 -0.24423
44 3 3 14.1933 43.1898 4.23208 12.011 -0.1837
45 3 3 12.9842 43.7102 3.99161 12.011 -0.23415
46 3 1 12.108 43.3574 4.51093 1.008 0.12909
47 3 1 12.8535 44.5005 3.2692 1.008 0.12909
48 3 1 15.0453 43.5692 3.69071 1.008 0.15086
49 3 1 13.5077 41.6454 5.52878 1.008 0.07222
50 3 1 15.0124 41.297 4.68659 1.008 0.07222
51 3 1 16.2588 40.8141 6.60027 1.008 0.09202
52 3 1 16.3642 41.9995 7.88259 1.008 0.09202
53 3 1 13.9113 40.2813 7.23559 1.008 0.10167
54 3 1 13.9171 41.5637 8.43065 1.008 0.10167
55 3 1 14.2714 39.1714 9.29339 1.008 0.08773
56 3 1 15.8701 39.2155 8.55611 1.008 0.08773
57 3 1 15.458 40.3521 9.84552 1.008 0.08773
58 4 4 40.0202 26.4539 17.8741 15.999 -0.35515
59 4 2 39.8585 27.8453 18.0951 12.011 0.03297
60 4 2 38.7896 25.7909 17.6282 12.011 0.01762
61 4 2 37.9633 25.7039 18.9215 12.011 -0.23743
62 4 2 36.7092 24.8391 18.7881 12.011 -0.24423
63 4 3 41.213 28.5094 18.1086 12.011 -0.1837
64 4 3 41.7844 29.0402 19.1957 12.011 -0.23415
65 4 1 41.3002 29.0111 20.1581 1.008 0.12909
66 4 1 42.7536 29.5115 19.1391 1.008 0.12909
67 4 1 41.7383 28.5541 17.1674 1.008 0.15086
68 4 1 39.3672 28.0294 19.0477 1.008 0.07222
69 4 1 39.2542 28.297 17.3087 1.008 0.07222
70 4 1 38.2307 26.2953 16.8377 1.008 0.09202
71 4 1 39.0117 24.7847 17.2686 1.008 0.09202
72 4 1 37.6404 26.694 19.24 1.008 0.10167
73 4 1 38.5776 25.2938 19.7244 1.008 0.10167
74 4 1 36.0459 25.0062 19.6406 1.008 0.08773
75 4 1 36.1498 25.0754 17.8835 1.008 0.08773
76 4 1 36.9599 23.7774 18.7679 1.008 0.08773
77 5 4 34.5934 2.0922 36.3024 15.999 -0.35515
78 5 2 34.0426 1.77716 37.5682 12.011 0.03297
79 5 2 36.0142 2.09535 36.3076 12.011 0.01762
80 5 2 36.5604 3.28696 37.1124 12.011 -0.23743
81 5 2 38.0734 3.46575 36.9833 12.011 -0.24423
82 5 3 32.5489 1.59497 37.4529 12.011 -0.1837
83 5 3 31.648 2.42957 37.9851 12.011 -0.23415
84 5 1 31.9474 3.30902 38.5312 1.008 0.12909
85 5 1 30.59 2.24485 37.8819 1.008 0.12909
86 5 1 32.2053 0.729133 36.9103 1.008 0.15086
87 5 1 34.2319 2.58472 38.2674 1.008 0.07222
88 5 1 34.4834 0.863278 37.9644 1.008 0.07222
89 5 1 36.4016 1.15353 36.7001 1.008 0.09202
90 5 1 36.3555 2.17442 35.2745 1.008 0.09202
91 5 1 36.3439 3.17442 38.1732 1.008 0.10167
92 5 1 36.0814 4.20906 36.782 1.008 0.10167
93 5 1 38.4376 4.1418 37.7618 1.008 0.08773
94 5 1 38.604 2.52101 37.0976 1.008 0.08773
95 5 1 38.3435 3.89955 36.0175 1.008 0.08773
96 6 4 21.2668 22.9664 20.3474 15.999 -0.35515
97 6 2 19.975 23.2242 19.8217 12.011 0.03297
98 6 2 22.2993 23.4482 19.5005 12.011 0.01762
99 6 2 22.3464 22.6082 18.2135 12.011 -0.23743
100 6 2 23.4912 22.9661 17.2717 12.011 -0.24423
101 6 3 18.9372 22.9333 20.8745 12.011 -0.1837
102 6 3 18.0834 21.9048 20.8343 12.011 -0.23415
103 6 1 18.0871 21.2011 20.0174 1.008 0.12909
104 6 1 17.3721 21.7471 21.6294 1.008 0.12909
105 6 1 18.9102 23.5974 21.7226 1.008 0.15086
106 6 1 19.7707 22.5889 18.9635 1.008 0.07222
107 6 1 19.886 24.2632 19.5063 1.008 0.07222
108 6 1 22.1553 24.5088 19.2809 1.008 0.09202
109 6 1 23.2488 23.3617 20.0312 1.008 0.09202
110 6 1 21.4357 22.7313 17.6318 1.008 0.10167
111 6 1 22.4268 21.549 18.4679 1.008 0.10167
112 6 1 23.2476 22.6369 16.2635 1.008 0.08773
113 6 1 23.6623 24.0402 17.2207 1.008 0.08773
114 6 1 24.4133 22.4577 17.5611 1.008 0.08773
115 7 4 3.82286 32.543 4.22852 15.999 -0.35515
116 7 2 2.69657 31.7459 4.56172 12.011 0.03297
117 7 2 3.83812 32.8968 2.85761 12.011 0.01762
118 7 2 4.09809 31.6446 2.00818 12.011 -0.23743
119 7 2 4.4394 31.9178 0.542098 12.011 -0.24423
120 7 3 2.63912 31.6586 6.06384 12.011 -0.1837
121 7 3 2.81939 30.5716 6.82597 12.011 -0.23415
122 7 1 3.04884 29.6132 6.40259 1.008 0.12909
123 7 1 2.74097 30.6351 7.90062 1.008 0.12909
124 7 1 2.42717 32.594 6.53246 1.008 0.15086
125 7 1 2.74552 30.7464 4.14526 1.008 0.07222
126 7 1 1.77192 32.2137 4.21684 1.008 0.07222
127 7 1 2.90932 33.3885 2.56282 1.008 0.09202
128 7 1 4.64126 33.6175 2.70892 1.008 0.09202
129 7 1 3.22733 30.9917 2.02333 1.008 0.10167
130 7 1 4.9137 31.0755 2.44852 1.008 0.10167
131 7 1 4.40724 30.981 -0.021479 1.008 0.08773
132 7 1 3.72765 32.6073 0.0878358 1.008 0.08773
133 7 1 5.44392 32.3354 0.441672 1.008 0.08773
134 8 4 20.6359 9.36801 27.1334 15.999 -0.35515
135 8 2 20.8966 7.97744 27.109 12.011 0.03297
136 8 2 19.8171 9.76523 26.0467 12.011 0.01762
137 8 2 20.6278 9.74041 24.7463 12.011 -0.23743
138 8 2 19.9076 10.4099 23.5763 12.011 -0.24423
139 8 3 21.4704 7.56175 28.4381 12.011 -0.1837
140 8 3 22.7126 7.09564 28.5948 12.011 -0.23415
141 8 1 23.3834 7.00615 27.7555 1.008 0.12909
142 8 1 23.0788 6.79634 29.5647 1.008 0.12909
143 8 1 20.8204 7.63943 29.2954 1.008 0.15086
144 8 1 21.603 7.7343 26.3181 1.008 0.07222
145 8 1 19.9834 7.40818 26.9395 1.008 0.07222
146 8 1 18.9354 9.12655 25.9658 1.008 0.09202
147 8 1 19.4616 10.7786 26.2434 1.008 0.09202
148 8 1 20.8696 8.71944 24.4528 1.008 0.10167
149 8 1 21.5736 10.2477 24.9093 1.008 0.10167
150 8 1 20.4267 10.1984 22.6379 1.008 0.08773
151 8 1 18.8854 10.0459 23.4787 1.008 0.08773
152 8 1 19.8735 11.4942 23.7002 1.008 0.08773
153 9 4 37.8009 4.75953 32.9363 15.999 -0.35515
154 9 2 38.0329 3.88671 31.8544 12.011 0.03297
155 9 2 37.1565 5.94734 32.5091 12.011 0.01762
156 9 2 38.1152 6.82387 31.6878 12.011 -0.23743
157 9 2 37.5409 8.21721 31.4406 12.011 -0.24423
158 9 3 38.3445 2.51999 32.3944 12.011 -0.1837
159 9 3 39.5485 1.95283 32.3163 12.011 -0.23415
160 9 1 40.3796 2.47786 31.8758 1.008 0.12909
161 9 1 39.7149 0.959148 32.6988 1.008 0.12909
162 9 1 37.5397 1.97435 32.859 1.008 0.15086
163 9 1 38.8645 4.2428 31.252 1.008 0.07222
164 9 1 37.156 3.80929 31.2191 1.008 0.07222
165 9 1 36.2592 5.71793 31.9285 1.008 0.09202
166 9 1 36.8429 6.50165 33.3969 1.008 0.09202
167 9 1 38.3453 6.37188 30.7233 1.008 0.10167
168 9 1 39.0558 6.9336 32.2288 1.008 0.10167
169 9 1 38.0983 8.74026 30.6622 1.008 0.08773
170 9 1 36.4975 8.1784 31.1357 1.008 0.08773
171 9 1 37.6102 8.81836 32.3453 1.008 0.08773
172 10 4 29.6807 27.5653 33.5834 15.999 -0.35515
173 10 2 29.7752 27.0529 34.8982 12.011 0.03297
174 10 2 28.6414 26.9421 32.8522 12.011 0.01762
175 10 2 29.0211 25.4939 32.5022 12.011 -0.23743
176 10 2 28.0205 24.8317 31.5581 12.011 -0.24423
177 10 3 30.7311 27.9084 35.6802 12.011 -0.1837
178 10 3 31.9671 27.5065 35.9753 12.011 -0.23415
179 10 1 32.3047 26.5455 35.6303 1.008 0.12909
180 10 1 32.6545 28.1046 36.5527 1.008 0.12909
181 10 1 30.3849 28.8755 36.0051 1.008 0.15086
182 10 1 30.1675 26.0385 34.8835 1.008 0.07222
183 10 1 28.8104 27.0382 35.4041 1.008 0.07222
184 10 1 27.7081 26.9766 33.4167 1.008 0.09202
185 10 1 28.4841 27.5136 31.9369 1.008 0.09202
186 10 1 29.0748 24.8771 33.3981 1.008 0.10167
187 10 1 30.0075 25.4669 32.0374 1.008 0.10167
188 10 1 28.1578 23.7476 31.5541 1.008 0.08773
189 10 1 26.9985 25.0367 31.8682 1.008 0.08773
190 10 1 28.1417 25.1892 30.5344 1.008 0.08773
191 11 4 31.4297 26.3714 41.9099 15.999 -0.35515
192 11 2 32.723 26.1971 41.3733 12.011 0.03297
193 11 2 30.4569 25.6192 41.183 12.011 0.01762
194 11 2 30.2039 26.2452 39.7919 12.011 -0.23743
195 11 2 29.132 25.5381 38.9632 12.011 -0.24423
196 11 3 33.836 26.6982 42.2552 12.011 -0.1837
197 11 3 34.8104 27.537 41.8564 12.011 -0.23415
198 11 1 34.8202 27.9619 40.8718 1.008 0.12909
199 11 1 35.5951 27.8378 42.5303 1.008 0.12909
200 11 1 33.8727 26.3116 43.277 1.008 0.15086
201 11 1 32.8218 26.6844 40.4194 1.008 0.07222
202 11 1 32.9333 25.1476 41.263 1.008 0.07222
203 11 1 30.7585 24.568 41.0901 1.008 0.09202
204 11 1 29.5241 25.6163 41.7563 1.008 0.09202
205 11 1 31.1132 26.2351 39.1976 1.008 0.10167
206 11 1 29.9239 27.2915 39.9161 1.008 0.10167
207 11 1 29.1623 25.9089 37.9391 1.008 0.08773
208 11 1 29.2959 24.462 38.9196 1.008 0.08773
209 11 1 28.1326 25.7276 39.3562 1.008 0.08773
210 12 4 4.64911 10.7302 46.2596 15.999 -0.35515
211 12 2 5.41921 11.6662 45.5247 12.011 0.03297
212 12 2 4.6386 10.9973 47.6531 12.011 0.01762
213 12 2 6.01208 10.6791 48.2668 12.011 -0.23743
214 12 2 6.03214 10.7462 49.7949 12.011 -0.24423
215 12 3 5.19464 11.4454 44.0491 12.011 -0.1837
216 12 3 6.12266 10.9775 43.2061 12.011 -0.23415
217 12 1 7.11018 10.7107 43.5437 1.008 0.12909
218 12 1 5.90849 10.8545 42.1561 1.008 0.12909
219 12 1 4.21817 11.6953 43.6669 1.008 0.15086
220 12 1 6.47848 11.547 45.7395 1.008 0.07222
221 12 1 5.13279 12.6877 45.7743 1.008 0.07222
222 12 1 4.34983 12.0317 47.8477 1.008 0.09202
223 12 1 3.87774 10.3645 48.1118 1.008 0.09202
224 12 1 6.76219 11.3801 47.9052 1.008 0.10167
225 12 1 6.33102 9.68254 47.96 1.008 0.10167
226 12 1 7.06319 10.7836 50.1551 1.008 0.08773
227 12 1 5.52422 11.6364 50.1661 1.008 0.08773
228 12 1 5.55876 9.86921 50.2404 1.008 0.08773
229 13 4 37.0424 48.0836 15.8841 15.999 -0.35515
230 13 2 37.7908 49.2302 15.5218 12.011 0.03297
231 13 2 37.8349 46.9117 15.9862 12.011 0.01762
232 13 2 38.3127 46.4608 14.595 12.011 -0.23743
233 13 2 38.9843 45.0872 14.5945 12.011 -0.24423
234 13 3 36.9098 50.4482 15.6429 12.011 -0.1837
235 13 3 36.5057 51.1936 14.6075 12.011 -0.23415
236 13 1 36.7863 50.951 13.5952 1.008 0.12909
237 13 1 35.8849 0.0768458 14.7563 1.008 0.12909
238 13 1 36.6015 50.7224 16.6391 1.008 0.15086
239 13 1 38.1442 49.1527 14.4958 1.008 0.07222
240 13 1 38.6557 49.3501 16.1742 1.008 0.07222
241 13 1 38.6808 47.0757 16.6553 1.008 0.09202
242 13 1 37.2202 46.1317 16.438 1.008 0.09202
243 13 1 39.0342 47.1692 14.1919 1.008 0.10167
244 13 1 37.4738 46.4348 13.8993 1.008 0.10167
245 13 1 39.5319 44.9352 13.6609 1.008 0.08773
246 13 1 39.6974 44.9854 15.4123 1.008 0.08773
247 13 1 38.2484 44.2875 14.6774 1.008 0.08773
248 14 4 16.6199 7.5334 28.6937 15.999 -0.35515
249 14 2 16.3007 8.90943 28.57 12.011 0.03297
250 14 2 15.5643 6.66297 28.3187 12.011 0.01762
251 14 2 14.3637 6.79171 29.2747 12.011 -0.23743
252 14 2 13.258 5.77025 29.005 12.011 -0.24423
253 14 3 17.5254 9.7259 28.9055 12.011 -0.1837
254 14 3 17.5879 10.6549 29.8668 12.011 -0.23415
255 14 1 16.7434 10.8871 30.49 1.008 0.12909
256 14 1 18.506 11.1865 30.0577 1.008 0.12909
257 14 1 18.4146 9.52927 28.3278 1.008 0.15086
258 14 1 15.5174 9.19905 29.2629 1.008 0.07222
259 14 1 15.9724 9.14763 27.559 1.008 0.07222
260 14 1 15.2673 6.84082 27.2832 1.008 0.09202
261 14 1 15.9552 5.64504 28.3631 1.008 0.09202
262 14 1 13.9091 7.77652 29.187 1.008 0.10167
263 14 1 14.6908 6.67739 30.3077 1.008 0.10167
264 14 1 12.334 6.09281 29.4924 1.008 0.08773
265 14 1 13.0512 5.67242 27.9382 1.008 0.08773
266 14 1 13.5159 4.78666 29.4032 1.008 0.08773
267 15 4 10.2667 39.3226 45.5978 15.999 -0.35515
268 15 2 9.43574 39.3726 44.4498 12.011 0.03297
269 15 2 11.6386 39.1361 45.2808 12.011 0.01762
270 15 2 11.8881 37.7135 44.7486 12.011 -0.23743
271 15 2 13.3695 37.3741 44.5726 12.011 -0.24423
272 15 3 8.03831 39.7682 44.8591 12.011 -0.1837
273 15 3 6.9752 38.9578 44.7961 12.011 -0.23415
274 15 1 7.05952 37.9405 44.4507 1.008 0.12909
275 15 1 5.99599 39.3064 45.0855 1.008 0.12909
276 15 1 7.90485 40.7786 45.2104 1.008 0.15086
277 15 1 9.39299 38.4024 43.9608 1.008 0.07222
278 15 1 9.8115 40.1002 43.7311 1.008 0.07222
279 15 1 11.9719 39.8863 44.5619 1.008 0.09202
280 15 1 12.2193 39.291 46.1915 1.008 0.09202
281 15 1 11.412 37.5806 43.7788 1.008 0.10167
282 15 1 11.4448 36.9825 45.4255 1.008 0.10167
283 15 1 13.481 36.4809 43.952 1.008 0.08773
284 15 1 13.9116 38.183 44.083 1.008 0.08773
285 15 1 13.85 37.1704 45.5315 1.008 0.08773
286 16 4 22.8074 40.7811 29.6242 15.999 -0.35515
287 16 2 22.9545 41.4851 28.4018 12.011 0.03297
288 16 2 23.8979 39.9132 29.8883 12.011 0.01762
289 16 2 23.8821 38.7336 28.9028 12.011 -0.23743
290 16 2 24.8798 37.6381 29.263 12.011 -0.24423
291 16 3 21.867 42.5233 28.2935 12.011 -0.1837
292 16 3 20.8731 42.4839 27.3982 12.011 -0.23415
293 16 1 20.7807 41.6787 26.6881 1.008 0.12909
294 16 1 20.1303 43.2649 27.362 1.008 0.12909
295 16 1 21.9153 43.3477 28.9867 1.008 0.15086
296 16 1 22.8709 40.8115 27.5521 1.008 0.07222
297 16 1 23.9246 41.9797 28.35 1.008 0.07222
298 16 1 24.8445 40.4541 29.8373 1.008 0.09202
299 16 1 23.8006 39.5409 30.9105 1.008 0.09202
300 16 1 24.1211 39.0676 27.8939 1.008 0.10167
301 16 1 22.8844 38.2944 28.8679 1.008 0.10167
302 16 1 25.0261 36.9652 28.4148 1.008 0.08773
303 16 1 25.8474 38.0579 29.5301 1.008 0.08773
304 16 1 24.5225 37.0429 30.1048 1.008 0.08773
305 17 4 19.5233 38.0403 46.6861 15.999 -0.35515
306 17 2 20.7412 37.4922 47.161 12.011 0.03297
307 17 2 18.4373 37.7601 47.5573 12.011 0.01762
308 17 2 18.0761 36.2648 47.5068 12.011 -0.23743
309 17 2 16.8018 35.9165 48.2755 12.011 -0.24423
310 17 3 21.899 37.9559 46.3159 12.011 -0.1837
311 17 3 22.5981 37.1493 45.5094 12.011 -0.23415
312 17 1 22.3478 36.1084 45.3946 1.008 0.12909
313 17 1 23.4417 37.5154 44.946 1.008 0.12909
314 17 1 22.184 38.993 46.3946 1.008 0.15086
315 17 1 20.716 36.4068 47.1125 1.008 0.07222
316 17 1 20.9214 37.785 48.195 1.008 0.07222
317 17 1 18.6731 38.0696 48.5769 1.008 0.09202
318 17 1 17.5804 38.3549 47.2386 1.008 0.09202
319 17 1 18.8735 35.6584 47.9325 1.008 0.10167
320 17 1 17.955 35.9484 46.4709 1.008 0.10167
321 17 1 16.7456 34.8372 48.4377 1.008 0.08773
322 17 1 16.7794 36.3961 49.2537 1.008 0.08773
323 17 1 15.9086 36.2144 47.7237 1.008 0.08773
324 18 4 33.6064 23.3691 37.8644 15.999 -0.35515
325 18 2 33.2228 24.7186 38.0682 12.011 0.03297
326 18 2 32.7102 22.4039 38.3724 12.011 0.01762
327 18 2 32.7979 22.3696 39.9043 12.011 -0.23743
328 18 2 31.9605 21.2643 40.5584 12.011 -0.24423
329 18 3 34.1678 25.6188 37.3069 12.011 -0.1837
330 18 3 35.0144 26.5092 37.8358 12.011 -0.23415
331 18 1 35.1084 26.6701 38.8968 1.008 0.12909
332 18 1 35.6682 27.07 37.1838 1.008 0.12909
333 18 1 34.175 25.4881 36.2407 1.008 0.15086
334 18 1 33.2748 24.9624 39.1209 1.008 0.07222
335 18 1 32.2048 24.8916 37.714 1.008 0.07222
336 18 1 31.6949 22.6057 38.03 1.008 0.09202
337 18 1 33.0163 21.4427 37.9559 1.008 0.09202
338 18 1 32.431 23.3066 40.3055 1.008 0.10167
339 18 1 33.8383 22.2558 40.2215 1.008 0.10167
340 18 1 31.8323 21.4896 41.6245 1.008 0.08773
341 18 1 30.9632 21.1883 40.115 1.008 0.08773
342 18 1 32.4541 20.2885 40.4872 1.008 0.08773
343 19 4 44.6407 25.265 50.664 15.999 -0.35515
344 19 2 44.7137 26.5777 50.1283 12.011 0.03297
345 19 2 44.9598 24.2533 49.7152 12.011 0.01762
346 19 2 43.8899 24.2014 48.6101 12.011 -0.23743
347 19 2 44.0356 23.0605 47.6028 12.011 -0.24423
348 19 3 44.5315 27.5847 51.2344 12.011 -0.1837
349 19 3 43.4723 28.3953 51.3346 12.011 -0.23415
350 19 1 42.6733 28.3523 50.6164 1.008 0.12909
351 19 1 43.3889 29.1192 0.144257 1.008 0.12909
352 19 1 45.3173 27.652 51.968 1.008 0.15086
353 19 1 43.9222 26.7459 49.4031 1.008 0.07222
354 19 1 45.6707 26.7568 49.6389 1.008 0.07222
355 19 1 45.9451 24.4254 49.2854 1.008 0.09202
356 19 1 45.0143 23.2967 50.2363 1.008 0.09202
357 19 1 43.9309 25.1101 48.0248 1.008 0.10167
358 19 1 42.8977 24.1393 49.0604 1.008 0.10167
359 19 1 43.5543 23.3318 46.6602 1.008 0.08773
360 19 1 45.0798 22.831 47.3906 1.008 0.08773
361 19 1 43.5477 22.1565 47.9677 1.008 0.08773
362 20 4 38.876 27.9725 30.1272 15.999 -0.35515
363 20 2 39.1231 29.2452 30.692 12.011 0.03297
364 20 2 39.4277 27.8583 28.8246 12.011 0.01762
365 20 2 38.5702 28.6062 27.7948 12.011 -0.23743
366 20 2 39.0062 28.3351 26.353 12.011 -0.24423
367 20 3 38.8017 29.218 32.1677 12.011 -0.1837
368 20 3 37.7618 29.8376 32.7355 12.011 -0.23415
369 20 1 37.0616 30.4075 32.1513 1.008 0.12909
370 20 1 37.5967 29.7843 33.8007 1.008 0.12909
371 20 1 39.4768 28.665 32.7984 1.008 0.15086
372 20 1 38.5036 29.9721 30.1799 1.008 0.07222
373 20 1 40.1665 29.5418 30.5793 1.008 0.07222
374 20 1 40.4555 28.2263 28.8031 1.008 0.09202
375 20 1 39.4664 26.7981 28.5709 1.008 0.09202
376 20 1 38.6241 29.6811 27.9612 1.008 0.10167
377 20 1 37.5231 28.3208 27.8998 1.008 0.10167
378 20 1 38.5625 29.0674 25.6748 1.008 0.08773
379 20 1 40.088 28.3991 26.2388 1.008 0.08773
380 20 1 38.6895 27.3451 26.0209 1.008 0.08773
381 21 4 35.3735 23.4484 35.8213 15.999 -0.35515
382 21 2 36.6555 23.0882 36.2939 12.011 0.03297
383 21 2 34.9645 22.8015 34.6385 12.011 0.01762
384 21 2 35.6702 23.4876 33.4619 12.011 -0.23743
385 21 2 35.1414 23.0522 32.0908 12.011 -0.24423
386 21 3 36.8015 23.5215 37.7324 12.011 -0.1837
387 21 3 37.6555 24.4525 38.1746 12.011 -0.23415
388 21 1 38.319 24.985 37.5075 1.008 0.12909
389 21 1 37.6808 24.7026 39.2271 1.008 0.12909
390 21 1 36.149 23.0292 38.4374 1.008 0.15086
391 21 1 37.4459 23.5087 35.67 1.008 0.07222
392 21 1 36.7405 22.0095 36.3098 1.008 0.07222
393 21 1 35.1529 21.728 34.6856 1.008 0.09202
394 21 1 33.8829 22.9248 34.5598 1.008 0.09202
395 21 1 36.7432 23.2898 33.5025 1.008 0.10167
396 21 1 35.534 24.569 33.5494 1.008 0.10167
397 21 1 35.8522 23.3539 31.3132 1.008 0.08773
398 21 1 35.0132 21.9673 32.0292 1.008 0.08773
399 21 1 34.1821 23.5323 31.8684 1.008 0.08773
400 22 4 22.7648 5.64672 20.6596 15.999 -0.35515
401 22 2 22.2242 6.57906 21.5797 12.011 0.03297
402 22 2 24.1552 5.83135 20.4401 12.011 0.01762
403 22 2 24.4243 7.11199 19.6344 12.011 -0.23743
404 22 2 25.8874 7.25241 19.2084 12.011 -0.24423
405 22 3 20.8042 6.18735 21.9068 12.011 -0.1837
406 22 3 19.7248 6.87719 21.5201 12.011 -0.23415
407 22 1 19.8093 7.77216 20.925 1.008 0.12909
408 22 1 18.7322 6.55369 21.7926 1.008 0.12909
409 22 1 20.67 5.29357 22.4944 1.008 0.15086
410 22 1 22.2216 7.57792 21.1501 1.008 0.07222
411 22 1 22.8057 6.60491 22.5015 1.008 0.07222
412 22 1 24.7014 5.83569 21.3858 1.008 0.09202
413 22 1 24.5165 4.97919 19.8659 1.008 0.09202
414 22 1 24.1667 7.99602 20.2151 1.008 0.10167
415 22 1 23.802 7.12304 18.7388 1.008 0.10167
416 22 1 26.0882 8.27156 18.8688 1.008 0.08773
417 22 1 26.5681 7.03961 20.0327 1.008 0.08773
418 22 1 26.1277 6.57771 18.3847 1.008 0.08773
419 23 4 43.9779 14.495 8.19349 15.999 -0.35515
420 23 2 44.7431 14.1362 7.06131 12.011 0.03297
421 23 2 42.9662 13.5699 8.54739 12.011 0.01762
422 23 2 41.8282 13.5728 7.51571 12.011 -0.23743
423 23 2 40.6518 12.6801 7.91754 12.011 -0.24423
424 23 3 45.8262 15.1776 6.92188 12.011 -0.1837
425 23 3 45.8774 16.0824 5.93687 12.011 -0.23415
426 23 1 45.1286 16.1185 5.16113 1.008 0.12909
427 23 1 46.6717 16.8114 5.89625 1.008 0.12909
428 23 1 46.5868 15.189 7.68773 1.008 0.15086
429 23 1 44.1317 14.1373 6.16034 1.008 0.07222
430 23 1 45.1892 13.1473 7.17791 1.008 0.07222
431 23 1 43.3799 12.5703 8.68605 1.008 0.09202
432 23 1 42.567 13.8842 9.51343 1.008 0.09202
433 23 1 42.1862 13.2186 6.5512 1.008 0.10167
434 23 1 41.4596 14.5899 7.37701 1.008 0.10167
435 23 1 39.99 12.522 7.06361 1.008 0.08773
436 23 1 40.992 11.7021 8.26225 1.008 0.08773
437 23 1 40.0627 13.134 8.71656 1.008 0.08773
438 24 4 35.4739 14.4741 16.0964 15.999 -0.35515
439 24 2 34.6686 15.1001 15.1129 12.011 0.03297
440 24 2 35.5844 13.0747 15.8892 12.011 0.01762
441 24 2 34.2644 12.3663 16.2248 12.011 -0.23743
442 24 2 34.3961 10.8433 16.235 12.011 -0.24423
443 24 3 34.762 16.5979 15.2614 12.011 -0.1837
444 24 3 33.7532 17.3751 15.6728 12.011 -0.23415
445 24 1 32.7978 16.9574 15.9451 1.008 0.12909
446 24 1 33.8653 18.4455 15.7414 1.008 0.12909
447 24 1 35.704 17.0533 15.0013 1.008 0.15086
448 24 1 33.6289 14.8019 15.2243 1.008 0.07222
449 24 1 34.9954 14.8254 14.1103 1.008 0.07222
450 24 1 35.9019 12.857 14.8677 1.008 0.09202
451 24 1 36.3594 12.6902 16.55 1.008 0.09202
452 24 1 33.4913 12.6265 15.5041 1.008 0.10167
453 24 1 33.9118 12.6889 17.2048 1.008 0.10167
454 24 1 33.4093 10.3752 16.2048 1.008 0.08773
455 24 1 34.9572 10.4829 15.3727 1.008 0.08773
456 24 1 34.9004 10.4953 17.1384 1.008 0.08773
457 25 4 19.5462 17.2798 28.1259 15.999 -0.35515
458 25 2 19.8105 16.4273 29.2283 12.011 0.03297
459 25 2 19.7984 18.6449 28.4207 12.011 0.01762
460 25 2 18.7293 19.1948 29.3743 12.011 -0.23743
461 25 2 18.81 20.7091 29.5704 12.011 -0.24423
462 25 3 19.7331 14.9889 28.7848 12.011 -0.1837
463 25 3 18.7691 14.1322 29.1363 12.011 -0.23415
464 25 1 17.949 14.4254 29.7701 1.008 0.12909
465 25 1 18.7985 13.1136 28.7867 1.008 0.12909
466 25 1 20.5294 14.6345 28.1526 1.008 0.15086
467 25 1 19.0831 16.5856 30.0203 1.008 0.07222
468 25 1 20.8049 16.6108 29.6349 1.008 0.07222
469 25 1 20.8002 18.7744 28.8345 1.008 0.09202
470 25 1 19.7655 19.2051 27.4865 1.008 0.09202
471 25 1 18.8204 18.7348 30.3564 1.008 0.10167
472 25 1 17.7374 18.9476 28.9945 1.008 0.10167
473 25 1 18.2214 21.0073 30.441 1.008 0.08773
474 25 1 19.8344 21.0441 29.735 1.008 0.08773
475 25 1 18.41 21.2449 28.7085 1.008 0.08773
476 26 4 4.59375 48.531 39.3058 15.999 -0.35515
477 26 2 4.91115 48.8042 37.9618 12.011 0.03297
478 26 2 4.98791 49.5385 40.2294 12.011 0.01762
479 26 2 6.5097 49.6328 40.27 12.011 -0.23743
480 26 2 6.98369 50.5452 41.3791 12.011 -0.24423
481 26 3 4.52343 47.5726 37.1927 12.011 -0.1837
482 26 3 5.39934 46.8026 36.5332 12.011 -0.23415
483 26 1 6.45473 47.0387 36.5091 1.008 0.12909
484 26 1 5.07186 45.9084 36.0148 1.008 0.12909
485 26 1 3.48243 47.2814 37.2085 1.008 0.15086
486 26 1 5.97434 48.9557 37.8071 1.008 0.07222
487 26 1 4.38075 49.6788 37.5949 1.008 0.07222
488 26 1 4.51892 50.5035 39.9958 1.008 0.09202
489 26 1 4.61915 49.2327 41.2199 1.008 0.09202
490 26 1 6.92443 50.0156 39.3401 1.008 0.10167
491 26 1 6.93448 48.634 40.4297 1.008 0.10167
492 26 1 8.00551 50.8466 41.2098 1.008 0.08773
493 26 1 6.35305 51.4261 41.3774 1.008 0.08773
494 26 1 6.90526 50.0771 42.3457 1.008 0.08773
495 27 4 36.5436 4.10935 41.3094 15.999 -0.35515
496 27 2 36.9089 4.33789 42.6566 12.011 0.03297
497 27 2 35.4366 3.2293 41.2227 12.011 0.01762
498 27 2 35.8585 1.80744 41.6203 12.011 -0.23743
499 27 2 34.8019 0.747083 41.3134 12.011 -0.24423
500 27 3 37.8429 5.51404 42.747 12.011 -0.1837
501 27 3 39.1057 5.4347 43.1761 12.011 -0.23415
502 27 1 39.5439 4.49469 43.4723 1.008 0.12909
503 27 1 39.7221 6.31823 43.2318 1.008 0.12909
504 27 1 37.447 6.47397 42.4604 1.008 0.15086
505 27 1 37.3905 3.4615 43.0846 1.008 0.07222
506 27 1 36.0286 4.56063 43.2503 1.008 0.07222
507 27 1 34.6136 3.57565 41.8492 1.008 0.09202
508 27 1 35.0744 3.24475 40.1985 1.008 0.09202
509 27 1 36.0561 1.76109 42.6906 1.008 0.10167
510 27 1 36.7833 1.5368 41.1099 1.008 0.10167
511 27 1 35.0185 51.82 41.8734 1.008 0.08773
512 27 1 33.8034 1.08095 41.5959 1.008 0.08773
513 27 1 34.7957 0.490016 40.2539 1.008 0.08773
514 28 4 21.2802 4.35883 10.1723 15.999 -0.35515
515 28 2 20.7034 5.27654 11.0803 12.011 0.03297
516 28 2 20.5234 3.16232 10.0712 12.011 0.01762
517 28 2 20.5511 2.39911 11.4066 12.011 -0.23743
518 28 2 20.0295 0.975105 11.2875 12.011 -0.24423
519 28 3 21.484 6.5606 11.037 12.011 -0.1837
520 28 3 22.2262 7.00749 12.0566 12.011 -0.23415
521 28 1 22.3074 6.44698 12.9749 1.008 0.12909
522 28 1 22.7659 7.94126 11.9918 1.008 0.12909
523 28 1 21.4238 7.13922 10.129 1.008 0.15086
524 28 1 20.749 4.89788 12.0971 1.008 0.07222
525 28 1 19.6605 5.46863 10.8334 1.008 0.07222
526 28 1 19.4943 3.379 9.77378 1.008 0.09202
527 28 1 20.9627 2.54689 9.28165 1.008 0.09202
528 28 1 19.9343 2.90537 12.1509 1.008 0.10167
529 28 1 21.5662 2.36809 11.8001 1.008 0.10167
530 28 1 19.771 0.577751 12.2688 1.008 0.08773
531 28 1 19.1425 0.93284 10.6624 1.008 0.08773
532 28 1 20.7873 0.321929 10.8535 1.008 0.08773
533 29 4 41.9149 34.3034 34.45 15.999 -0.35515
534 29 2 43.2041 34.7006 34.871 12.011 0.03297
535 29 2 40.913 35.1468 35.0019 12.011 0.01762
536 29 2 40.8193 35.0123 36.5312 12.011 -0.23743
537 29 2 39.5946 35.7231 37.1046 12.011 -0.24423
538 29 3 44.302 33.9965 34.1134 12.011 -0.1837
539 29 3 45.2454 33.2617 34.7099 12.011 -0.23415
540 29 1 45.2246 33.0904 35.7734 1.008 0.12909
541 29 1 46.0471 32.8028 34.1527 1.008 0.12909
542 29 1 44.3347 34.1309 33.0442 1.008 0.15086
543 29 1 43.3349 34.4759 35.925 1.008 0.07222
544 29 1 43.3252 35.7732 34.739 1.008 0.07222
545 29 1 41.0915 36.1901 34.7416 1.008 0.09202
546 29 1 39.9626 34.8739 34.5504 1.008 0.09202
547 29 1 41.6972 35.4539 37.0012 1.008 0.10167
548 29 1 40.7834 33.9654 36.831 1.008 0.10167
549 29 1 39.6679 35.7966 38.1931 1.008 0.08773
550 29 1 39.5075 36.732 36.7033 1.008 0.08773
551 29 1 38.6766 35.1865 36.8611 1.008 0.08773
552 30 4 25.0826 30.3981 46.1652 15.999 -0.35515
553 30 2 24.8794 30.0168 44.8165 12.011 0.03297
554 30 2 25.2576 29.2836 47.0225 12.011 0.01762
555 30 2 23.9345 28.5206 47.1815 12.011 -0.23743
556 30 2 24.0086 27.4072 48.2218 12.011 -0.24423
557 30 3 24.9083 31.2466 43.9448 12.011 -0.1837
558 30 3 23.8532 31.7441 43.2903 12.011 -0.23415
559 30 1 22.8777 31.2938 43.355 1.008 0.12909
560 30 1 23.9566 32.6221 42.6717 1.008 0.12909
561 30 1 25.8567 31.7462 43.8469 1.008 0.15086
562 30 1 23.9152 29.5326 44.6995 1.008 0.07222
563 30 1 25.6529 29.3238 44.4835 1.008 0.07222
564 30 1 26.0422 28.6254 46.6453 1.008 0.09202
565 30 1 25.5895 29.6522 47.9938 1.008 0.09202
566 30 1 23.6501 28.0494 46.2436 1.008 0.10167
567 30 1 23.1312 29.2068 47.4549 1.008 0.10167
568 30 1 23.2281 26.6733 48.0226 1.008 0.08773
569 30 1 24.9586 26.8765 48.1812 1.008 0.08773
570 30 1 23.8698 27.7951 49.2328 1.008 0.08773
571 31 4 4.72734 38.4888 12.2587 15.999 -0.35515
572 31 2 4.35729 38.0094 13.534 12.011 0.03297
573 31 2 6.12346 38.5249 12.0354 12.011 0.01762
574 31 2 6.73938 39.7487 12.7253 12.011 -0.23743
575 31 2 8.21377 39.9353 12.3615 12.011 -0.24423
576 31 3 2.87035 37.7628 13.4653 12.011 -0.1837
577 31 3 1.93894 38.5625 14.0022 12.011 -0.23415
578 31 1 2.19771 39.4631 14.5485 1.008 0.12909
579 31 1 0.887742 38.3244 13.8909 1.008 0.12909
580 31 1 2.5569 36.8877 12.9175 1.008 0.15086
581 31 1 4.60619 38.7346 14.3104 1.008 0.07222
582 31 1 4.85851 37.0696 13.7672 1.008 0.07222
583 31 1 6.59452 37.5993 12.3724 1.008 0.09202
584 31 1 6.28623 38.5992 10.9562 1.008 0.09202
585 31 1 6.65755 39.6605 13.8092 1.008 0.10167
586 31 1 6.19792 40.6486 12.4279 1.008 0.10167
587 31 1 8.71193 40.5828 13.0874 1.008 0.08773
588 31 1 8.73402 38.9794 12.354 1.008 0.08773
589 31 1 8.32488 40.3888 11.3745 1.008 0.08773
590 32 4 41.22 46.218 4.99896 15.999 -0.35515
591 32 2 40.7149 45.3638 6.01254 12.011 0.03297
592 32 2 41.8127 47.3993 5.51803 12.011 0.01762
593 32 2 40.7316 48.3465 6.06741 12.011 -0.23743
594 32 2 41.2599 49.7286 6.45952 12.011 -0.24423
595 32 3 40.3152 44.0403 5.40687 12.011 -0.1837
596 32 3 39.0504 43.64 5.23172 12.011 -0.23415
597 32 1 38.2185 44.2659 5.50757 1.008 0.12909
598 32 1 38.8284 42.6699 4.81551 1.008 0.12909
599 32 1 41.1154 43.3785 5.11673 1.008 0.15086
600 32 1 39.8452 45.8073 6.49145 1.008 0.07222
601 32 1 41.4676 45.1784 6.77789 1.008 0.07222
602 32 1 42.5535 47.1537 6.28039 1.008 0.09202
603 32 1 42.3495 47.8927 4.70627 1.008 0.09202
604 32 1 40.2545 47.9197 6.94789 1.008 0.10167
605 32 1 39.9508 48.4814 5.31857 1.008 0.10167
606 32 1 40.5136 50.2629 7.05316 1.008 0.08773
607 32 1 42.1692 49.6643 7.05673 1.008 0.08773
608 32 1 41.4717 50.337 5.57825 1.008 0.08773
609 33 4 44.1758 2.05204 30.1052 15.999 -0.35515
610 33 2 44.7103 1.62473 28.8649 12.011 0.03297
611 33 2 42.7907 2.34848 30.0079 12.011 0.01762
612 33 2 42.551 3.63443 29.2237 12.011 -0.23743
613 33 2 41.1175 4.13004 29.3469 12.011 -0.24423
614 33 3 46.1386 1.1643 29.0194 12.011 -0.1837
615 33 3 47.2111 1.84408 28.5981 12.011 -0.23415
616 33 1 47.1209 2.80615 28.1218 1.008 0.12909
617 33 1 48.2041 1.44061 28.7222 1.008 0.12909
618 33 1 46.2912 0.204143 29.4786 1.008 0.15086
619 33 1 44.6964 2.44286 28.153 1.008 0.07222
620 33 1 44.1209 0.803304 28.4573 1.008 0.07222
621 33 1 42.2263 1.51487 29.5865 1.008 0.09202
622 33 1 42.3976 2.52601 31.0008 1.008 0.09202
623 33 1 42.7594 3.48688 28.1654 1.008 0.10167
624 33 1 43.2114 4.4156 29.6015 1.008 0.10167
625 33 1 40.9287 4.86484 28.5641 1.008 0.08773
626 33 1 40.3993 3.31832 29.2284 1.008 0.08773
627 33 1 40.9476 4.60688 30.3138 1.008 0.08773
628 34 4 48.0422 11.4266 32.3321 15.999 -0.35515
629 34 2 47.1903 12.3747 31.7129 12.011 0.03297
630 34 2 47.8524 11.3457 33.7306 12.011 0.01762
631 34 2 48.472 12.5714 34.4145 12.011 -0.23743
632 34 2 48.414 12.486 35.941 12.011 -0.24423
633 34 3 47.2652 12.1446 30.228 12.011 -0.1837
634 34 3 47.9611 12.9012 29.3781 12.011 -0.23415
635 34 1 48.5262 13.7551 29.7116 1.008 0.12909
636 34 1 47.981 12.6742 28.3237 1.008 0.12909
637 34 1 46.7456 11.289 29.8404 1.008 0.15086
638 34 1 47.5001 13.3928 31.9408 1.008 0.07222
639 34 1 46.1539 12.2572 32.029 1.008 0.07222
640 34 1 46.7921 11.2502 33.9749 1.008 0.09202
641 34 1 48.347 10.4354 34.0746 1.008 0.09202
642 34 1 47.9506 13.4813 34.1184 1.008 0.10167
643 34 1 49.5142 12.6827 34.1089 1.008 0.10167
644 34 1 48.5847 13.4723 36.3807 1.008 0.08773
645 34 1 47.4393 12.1378 36.2862 1.008 0.08773
646 34 1 49.1775 11.8104 36.3326 1.008 0.08773
647 35 4 38.9472 16.1791 24.1782 15.999 -0.35515
648 35 2 39.7661 16.9616 25.0338 12.011 0.03297
649 35 2 37.6289 16.6875 24.0426 12.011 0.01762
650 35 2 36.8475 16.4685 25.3466 12.011 -0.23743
651 35 2 35.3525 16.7879 25.2554 12.011 -0.24423
652 35 3 41.1888 16.468 24.9275 12.011 -0.1837
653 35 3 41.832 15.7869 25.8832 12.011 -0.23415
654 35 1 41.3576 15.5361 26.8169 1.008 0.12909
655 35 1 42.8565 15.4761 25.7419 1.008 0.12909
656 35 1 41.7087 16.6974 24.0104 1.008 0.15086
657 35 1 39.4406 16.8806 26.0688 1.008 0.07222
658 35 1 39.7354 18.0143 24.7509 1.008 0.07222
659 35 1 37.6503 17.7442 23.77 1.008 0.09202
660 35 1 37.1403 16.1543 23.2261 1.008 0.09202
661 35 1 37.2727 17.1001 26.1186 1.008 0.10167
662 35 1 36.9624 15.4365 25.6778 1.008 0.10167
663 35 1 34.9176 16.841 26.2571 1.008 0.08773
664 35 1 35.1744 17.7477 24.77 1.008 0.08773
665 35 1 34.8125 16.0165 24.7035 1.008 0.08773
666 36 4 34.7747 24.7102 5.33332 15.999 -0.35515
667 36 2 35.134 23.4406 5.8546 12.011 0.03297
668 36 2 34.5631 24.6996 3.93079 12.011 0.01762
669 36 2 35.9041 24.5456 3.19003 12.011 -0.23743
670 36 2 35.794 24.6201 1.66632 12.011 -0.24423
671 36 3 35.1631 23.5185 7.36024 12.011 -0.1837
672 36 3 36.2749 23.4317 8.09951 12.011 -0.23415
673 36 1 37.2469 23.3056 7.65048 1.008 0.12909
674 36 1 36.2267 23.4901 9.17512 1.008 0.12909
675 36 1 34.2149 23.6539 7.85374 1.008 0.15086
676 36 1 36.1195 23.14 5.50872 1.008 0.07222
677 36 1 34.4186 22.676 5.55263 1.008 0.07222
678 36 1 33.8578 23.9142 3.65433 1.008 0.09202
679 36 1 34.1014 25.6495 3.65824 1.008 0.09202
680 36 1 36.3644 23.5894 3.42011 1.008 0.10167
681 36 1 36.6041 25.3102 3.52656 1.008 0.10167
682 36 1 36.6867 24.194 1.2038 1.008 0.08773
683 36 1 34.9371 24.0597 1.29096 1.008 0.08773
684 36 1 35.7178 25.6538 1.32504 1.008 0.08773
685 37 4 17.1886 49.1168 15.6747 15.999 -0.35515
686 37 2 18.1991 48.2834 16.2161 12.011 0.03297
687 37 2 16.3055 49.6251 16.6631 12.011 0.01762
688 37 2 15.4112 48.5076 17.2182 12.011 -0.23743
689 37 2 14.3324 49.0194 18.1738 12.011 -0.24423
690 37 3 19.2252 48.0041 15.145 12.011 -0.1837
691 37 3 19.4586 46.7993 14.6119 12.011 -0.23415
692 37 1 18.9058 45.928 14.919 1.008 0.12909
693 37 1 20.211 46.6627 13.8504 1.008 0.12909
694 37 1 19.802 48.8452 14.7992 1.008 0.15086
695 37 1 17.7796 47.3419 16.5638 1.008 0.07222
696 37 1 18.6932 48.7696 17.0573 1.008 0.07222
697 37 1 16.8585 50.1123 17.4682 1.008 0.09202
698 37 1 15.6803 50.3892 16.1988 1.008 0.09202
699 37 1 16.0015 47.7802 17.773 1.008 0.10167
700 37 1 14.9324 47.9739 16.3964 1.008 0.10167
701 37 1 13.9764 48.2054 18.8083 1.008 0.08773
702 37 1 14.7172 49.7886 18.8425 1.008 0.08773
703 37 1 13.4747 49.4217 17.6315 1.008 0.08773
704 38 4 20.996 14.3063 37.2835 15.999 -0.35515
705 38 2 20.8714 13.6604 38.5397 12.011 0.03297
706 38 2 22.0541 15.2523 37.2572 12.011 0.01762
707 38 2 21.6829 16.4866 38.0953 12.011 -0.23743
708 38 2 22.6707 17.6458 37.952 12.011 -0.24423
709 38 3 19.8953 12.5171 38.4159 12.011 -0.1837
710 38 3 18.6871 12.4884 38.9907 12.011 -0.23415
711 38 1 18.3269 13.3137 39.5833 1.008 0.12909
712 38 1 18.0386 11.6337 38.8783 1.008 0.12909
713 38 1 20.2213 11.6733 37.8298 1.008 0.15086
714 38 1 20.508 14.3533 39.2947 1.008 0.07222
715 38 1 21.8311 13.2655 38.8734 1.008 0.07222
716 38 1 22.9846 14.8037 37.6101 1.008 0.09202
717 38 1 22.2188 15.5487 36.2205 1.008 0.09202
718 38 1 21.6431 16.2284 39.1525 1.008 0.10167
719 38 1 20.691 16.8398 37.8128 1.008 0.10167
720 38 1 22.5191 18.3742 38.7529 1.008 0.08773
721 38 1 23.7036 17.3033 38.0162 1.008 0.08773
722 38 1 22.5414 18.1686 37.0031 1.008 0.08773
723 39 4 47.4048 12.796 15.1604 15.999 -0.35515
724 39 2 48.4599 13.7196 15.3844 12.011 0.03297
725 39 2 47.8643 11.5978 14.5467 12.011 0.01762
726 39 2 48.251 11.8438 13.0746 12.011 -0.23743
727 39 2 48.6827 10.5873 12.3098 12.011 -0.24423
728 39 3 48.0137 14.8491 16.28 12.011 -0.1837
729 39 3 47.9466 16.1323 15.9056 12.011 -0.23415
730 39 1 48.194 16.446 14.9076 1.008 0.12909
731 39 1 47.6166 16.899 16.5896 1.008 0.12909
732 39 1 47.7409 14.5947 17.2908 1.008 0.15086
733 39 1 48.8019 14.1412 14.4441 1.008 0.07222
734 39 1 49.3076 13.2308 15.86 1.008 0.07222
735 39 1 48.7041 11.1814 15.1078 1.008 0.09202
736 39 1 47.0536 10.8688 14.5944 1.008 0.09202
737 39 1 49.0838 12.542 13.0105 1.008 0.10167
738 39 1 47.4112 12.294 12.5455 1.008 0.10167
739 39 1 49.1863 10.877 11.3844 1.008 0.08773
740 39 1 49.3779 9.974 12.8819 1.008 0.08773
741 39 1 47.8367 9.96158 12.0266 1.008 0.08773
742 40 4 29.4031 36.2468 43.3594 15.999 -0.35515
743 40 2 30.0393 37.5078 43.493 12.011 0.03297
744 40 2 28.6573 35.816 44.494 12.011 0.01762
745 40 2 29.4773 35.8038 45.7968 12.011 -0.23743
746 40 2 28.7647 35.1048 46.9594 12.011 -0.24423
747 40 3 30.764 37.8477 42.2095 12.011 -0.1837
748 40 3 32.0584 38.185 42.1524 12.011 -0.23415
749 40 1 32.6648 38.2259 43.0432 1.008 0.12909
750 40 1 32.5321 38.4406 41.2176 1.008 0.12909
751 40 1 30.1834 37.8277 41.301 1.008 0.15086
752 40 1 30.7759 37.4844 44.2904 1.008 0.07222
753 40 1 29.3176 38.2871 43.7265 1.008 0.07222
754 40 1 27.7662 36.4308 44.6203 1.008 0.09202
755 40 1 28.3158 34.8029 44.2836 1.008 0.09202
756 40 1 29.6846 36.8273 46.1065 1.008 0.10167
757 40 1 30.4332 35.3044 45.6416 1.008 0.10167
758 40 1 29.243 35.3633 47.9087 1.008 0.08773
759 40 1 27.7177 35.4062 47.0215 1.008 0.08773
760 40 1 28.8073 34.018 46.8487 1.008 0.08773
761 41 4 16.8443 36.1768 28.2645 15.999 -0.35515
762 41 2 17.0492 37.1555 29.2684 12.011 0.03297
763 41 2 15.8373 36.5536 27.3397 12.011 0.01762
764 41 2 14.4505 36.4964 27.9988 12.011 -0.23743
765 41 2 13.3109 36.6556 26.9938 12.011 -0.24423
766 41 3 18.2801 36.7974 30.0632 12.011 -0.1837
767 41 3 18.2599 36.3426 31.3207 12.011 -0.23415
768 41 1 17.3343 36.1887 31.8484 1.008 0.12909
769 41 1 19.1744 36.1187 31.8474 1.008 0.12909
770 41 1 19.2294 36.9349 29.5711 1.008 0.15086
771 41 1 16.1958 37.2009 29.9415 1.008 0.07222
772 41 1 17.1914 38.1439 28.8305 1.008 0.07222
773 41 1 16.0347 37.5478 26.9349 1.008 0.09202
774 41 1 15.8714 35.8576 26.5009 1.008 0.09202
775 41 1 14.3458 37.2867 28.7405 1.008 0.10167
776 41 1 14.3222 35.5459 28.5173 1.008 0.10167
777 41 1 12.3769 36.8938 27.509 1.008 0.08773
778 41 1 13.5187 37.4571 26.2862 1.008 0.08773
779 41 1 13.15 35.7381 26.4258 1.008 0.08773
780 42 4 45.6824 36.1604 6.8953 15.999 -0.35515
781 42 2 46.6437 35.9146 7.90619 12.011 0.03297
782 42 2 45.6292 37.5313 6.52801 12.011 0.01762
783 42 2 44.9942 38.3568 7.6592 12.011 -0.23743
784 42 2 44.6422 39.7835 7.24227 12.011 -0.24423
785 42 3 46.7991 34.4261 8.10163 12.011 -0.1837
786 42 3 46.4593 33.7759 9.22011 12.011 -0.23415
787 42 1 46.0256 34.292 10.0618 1.008 0.12909
788 42 1 46.6217 32.713 9.3144 1.008 0.12909
789 42 1 47.2345 33.8768 7.28467 1.008 0.15086
790 42 1 46.3303 36.3633 8.84627 1.008 0.07222
791 42 1 47.6082 36.344 7.62951 1.008 0.07222
792 42 1 46.624 37.9073 6.28268 1.008 0.09202
793 42 1 45.0309 37.6241 5.62081 1.008 0.09202
794 42 1 45.6782 38.425 8.50535 1.008 0.10167
795 42 1 44.0882 37.8676 8.01511 1.008 0.10167
796 42 1 44.4503 40.4027 8.12221 1.008 0.08773
797 42 1 45.4635 40.2322 6.68917 1.008 0.08773
798 42 1 43.7527 39.81 6.61029 1.008 0.08773
799 43 4 23.8787 45.6429 20.0737 15.999 -0.35515
800 43 2 23.5759 46.4712 18.9634 12.011 0.03297
801 43 2 24.838 46.2124 20.9526 12.011 0.01762
802 43 2 26.2286 46.218 20.2968 12.011 -0.23743
803 43 2 27.3589 46.6288 21.2412 12.011 -0.24423
804 43 3 22.3927 45.8931 18.2264 12.011 -0.1837
805 43 3 22.434 45.4049 16.9811 12.011 -0.23415
806 43 1 23.346 45.3864 16.4088 1.008 0.12909
807 43 1 21.5458 45.0179 16.5069 1.008 0.12909
808 43 1 21.4512 45.8914 18.7506 1.008 0.15086
809 43 1 24.4226 46.5307 18.2832 1.008 0.07222
810 43 1 23.3285 47.4808 19.291 1.008 0.07222
811 43 1 24.5411 47.2182 21.2547 1.008 0.09202
812 43 1 24.867 45.6053 21.8592 1.008 0.09202
813 43 1 26.25 46.8997 19.4484 1.008 0.10167
814 43 1 26.4571 45.2232 19.9185 1.008 0.10167
815 43 1 28.2568 46.8735 20.6679 1.008 0.08773
816 43 1 27.0973 47.5066 21.8307 1.008 0.08773
817 43 1 27.6195 45.819 21.9254 1.008 0.08773
818 44 4 35.89 14.6017 5.53386 15.999 -0.35515
819 44 2 37.1932 14.2199 5.94226 12.011 0.03297
820 44 2 35.2565 15.4765 6.4549 12.011 0.01762
821 44 2 34.8801 14.7249 7.74353 12.011 -0.23743
822 44 2 34.0212 15.5473 8.70682 12.011 -0.24423
823 44 3 37.8651 13.469 4.81967 12.011 -0.1837
824 44 3 38.1551 12.163 4.85195 12.011 -0.23415
825 44 1 37.9078 11.5494 5.70294 1.008 0.12909
826 44 1 38.6481 11.6831 4.02128 1.008 0.12909
827 44 1 38.1262 14.0422 3.94445 1.008 0.15086
828 44 1 37.1489 13.5733 6.81534 1.008 0.07222
829 44 1 37.7953 15.0929 6.19399 1.008 0.07222
830 44 1 35.8957 16.3337 6.67306 1.008 0.09202
831 44 1 34.3538 15.8659 5.98154 1.008 0.09202
832 44 1 35.775 14.4281 8.28763 1.008 0.10167
833 44 1 34.3389 13.8113 7.49529 1.008 0.10167
834 44 1 34.0203 15.0868 9.69771 1.008 0.08773
835 44 1 34.4023 16.5623 8.81974 1.008 0.08773
836 44 1 32.9847 15.6035 8.37023 1.008 0.08773
837 45 4 22.5238 24.1057 43.0374 15.999 -0.35515
838 45 2 22.5642 24.4333 44.4131 12.011 0.03297
839 45 2 21.7185 25.0161 42.3109 12.011 0.01762
840 45 2 20.2305 24.7557 42.5802 12.011 -0.23743
841 45 2 19.3829 25.5488 41.5951 12.011 -0.24423
842 45 3 23.5656 23.5253 45.0808 12.011 -0.1837
843 45 3 23.2414 22.5503 45.9374 12.011 -0.23415
844 45 1 22.2155 22.3496 46.2062 1.008 0.12909
845 45 1 24.0079 21.936 46.3852 1.008 0.12909
846 45 1 24.6023 23.6899 44.8332 1.008 0.15086
847 45 1 21.5861 24.3035 44.8736 1.008 0.07222
848 45 1 22.8741 25.4691 44.5562 1.008 0.07222
849 45 1 21.9848 26.0481 42.5444 1.008 0.09202
850 45 1 21.9028 24.8934 41.2435 1.008 0.09202
851 45 1 19.9506 25.058 43.5902 1.008 0.10167
852 45 1 19.9938 23.6956 42.4821 1.008 0.10167
853 45 1 18.382 25.7501 41.9734 1.008 0.08773
854 45 1 19.8518 26.5083 41.4186 1.008 0.08773
855 45 1 19.2883 25.0377 40.6355 1.008 0.08773
856 46 4 45.0494 20.6603 22.6211 15.999 -0.35515
857 46 2 46.327 21.0191 22.1217 12.011 0.03297
858 46 2 44.3661 21.7398 23.237 12.011 0.01762
859 46 2 45.0293 22.0943 24.5786 12.011 -0.23743
860 46 2 44.2513 23.1307 25.39 12.011 -0.24423
861 46 3 46.8717 19.8711 21.3089 12.011 -0.1837
862 46 3 47.9236 19.1238 21.6641 12.011 -0.23415
863 46 1 48.4577 19.296 22.5833 1.008 0.12909
864 46 1 48.2585 18.3102 21.0393 1.008 0.12909
865 46 1 46.3611 19.6462 20.3865 1.008 0.15086
866 46 1 47.0148 21.2282 22.9374 1.008 0.07222
867 46 1 46.2652 21.9043 21.4889 1.008 0.07222
868 46 1 44.33 22.6044 22.572 1.008 0.09202
869 46 1 43.3335 21.4305 23.408 1.008 0.09202
870 46 1 46.0271 22.4978 24.4176 1.008 0.10167
871 46 1 45.1423 21.1947 25.1843 1.008 0.10167
872 46 1 44.8828 23.537 26.1836 1.008 0.08773
873 46 1 43.9242 23.9641 24.7691 1.008 0.08773
874 46 1 43.3715 22.6893 25.8605 1.008 0.08773
875 47 4 23.4662 12.288 14.7344 15.999 -0.35515
876 47 2 22.7685 12.4551 15.957 12.011 0.03297
877 47 2 23.8916 10.949 14.5323 12.011 0.01762
878 47 2 25.0245 10.5849 15.5072 12.011 -0.23743
879 47 2 25.6612 9.22561 15.2183 12.011 -0.24423
880 47 3 22.1627 13.8344 16.0159 12.011 -0.1837
881 47 3 22.5484 14.7904 16.8686 12.011 -0.23415
882 47 1 23.3521 14.6374 17.57 1.008 0.12909
883 47 1 22.057 15.7515 16.8831 1.008 0.12909
884 47 1 21.3543 14.0389 15.3328 1.008 0.15086
885 47 1 23.4392 12.3381 16.8044 1.008 0.07222
886 47 1 21.9692 11.7204 16.0501 1.008 0.07222
887 47 1 23.0519 10.2593 14.6354 1.008 0.09202
888 47 1 24.2492 10.8604 13.5061 1.008 0.09202
889 47 1 24.6528 10.5497 16.5302 1.008 0.10167
890 47 1 25.8034 11.3476 15.4779 1.008 0.10167
891 47 1 26.2543 8.90193 16.0771 1.008 0.08773
892 47 1 24.9086 8.45906 15.0341 1.008 0.08773
893 47 1 26.3285 9.27069 14.3558 1.008 0.08773
894 48 4 43.3313 22.0127 6.88866 15.999 -0.35515
895 48 2 42.1082 21.2903 6.89928 12.011 0.03297
896 48 2 43.9804 22.0153 8.15346 12.011 0.01762
897 48 2 43.2187 22.9124 9.14473 12.011 -0.23743
898 48 2 43.9462 23.1311 10.4737 12.011 -0.24423
899 48 3 41.612 21.0982 5.48567 12.011 -0.1837
900 48 3 40.4801 21.6219 4.99958 12.011 -0.23415
901 48 1 39.8448 22.2486 5.60397 1.008 0.12909
902 48 1 40.173 21.4334 3.98344 1.008 0.12909
903 48 1 42.217 20.4761 4.84728 1.008 0.15086
904 48 1 41.3496 21.8127 7.47744 1.008 0.07222
905 48 1 42.246 20.3057 7.34065 1.008 0.07222
906 48 1 44.0867 21.0008 8.53917 1.008 0.09202
907 48 1 44.9913 22.4006 8.01425 1.008 0.09202
908 48 1 42.2434 22.4842 9.37281 1.008 0.10167
909 48 1 43.043 23.8877 8.69105 1.008 0.10167
910 48 1 43.2627 23.5632 11.2092 1.008 0.08773
911 48 1 44.3252 22.1974 10.8895 1.008 0.08773
912 48 1 44.7837 23.8224 10.3616 1.008 0.08773
913 49 4 29.7934 11.1363 18.1287 15.999 -0.35515
914 49 2 30.8448 12.0502 17.8656 12.011 0.03297
915 49 2 29.9275 9.92008 17.4107 12.011 0.01762
916 49 2 29.646 10.1457 15.9162 12.011 -0.23743
917 49 2 29.5856 8.85057 15.1052 12.011 -0.24423
918 49 3 30.7516 13.2117 18.8237 12.011 -0.1837
919 49 3 30.4274 14.4605 18.4668 12.011 -0.23415
920 49 1 30.1919 14.7128 17.446 1.008 0.12909
921 49 1 30.3917 15.2556 19.1951 1.008 0.12909
922 49 1 30.9745 13.004 19.8579 1.008 0.15086
923 49 1 30.7817 12.4299 16.8486 1.008 0.07222
924 49 1 31.8146 11.5701 17.9921 1.008 0.07222
925 49 1 30.919 9.49009 17.5634 1.008 0.09202
926 49 1 29.2066 9.20701 17.8138 1.008 0.09202
927 49 1 30.4206 10.7684 15.4724 1.008 0.10167
928 49 1 28.7001 10.6746 15.7939 1.008 0.10167
929 49 1 29.6462 9.07055 14.0365 1.008 0.08773
930 49 1 30.4117 8.18357 15.3514 1.008 0.08773
931 49 1 28.6514 8.31419 15.2782 1.008 0.08773
932 50 4 36.1215 44.4708 48.9645 15.999 -0.35515
933 50 2 35.4498 44.4177 50.2121 12.011 0.03297
934 50 2 36.2174 45.7925 48.453 12.011 0.01762
935 50 2 34.8321 46.2829 48.0027 12.011 -0.23743
936 50 2 34.8464 47.6152 47.2539 12.011 -0.24423
937 50 3 35.6159 43.0512 50.8285 12.011 -0.1837
938 50 3 34.6053 42.2164 51.098 12.011 -0.23415
939 50 1 33.5844 42.4706 50.8693 1.008 0.12909
940 50 1 34.7863 41.2552 51.5509 1.008 0.12909
941 50 1 36.6216 42.7478 51.0746 1.008 0.15086
942 50 1 34.3881 44.6147 50.0879 1.008 0.07222
943 50 1 35.8562 45.1577 50.9002 1.008 0.07222
944 50 1 36.6542 46.4659 49.193 1.008 0.09202
945 50 1 36.8964 45.7778 47.5987 1.008 0.09202
946 50 1 34.1663 46.3998 48.8562 1.008 0.10167
947 50 1 34.3916 45.5373 47.348 1.008 0.10167
948 50 1 33.8321 48.0185 47.1952 1.008 0.08773
949 50 1 35.467 48.356 47.7584 1.008 0.08773
950 50 1 35.2119 47.4932 46.2322 1.008 0.08773
951 51 4 44.9866 25.789 32.6581 15.999 -0.35515
952 51 2 45.6952 25.5503 31.4573 12.011 0.03297
953 51 2 43.6008 25.5086 32.5455 12.011 0.01762
954 51 2 42.9378 26.4709 31.5499 12.011 -0.23743
955 51 2 41.4148 26.3933 31.5749 12.011 -0.24423
956 51 3 47.1706 25.6405 31.7513 12.011 -0.1837
957 51 3 47.9769 26.5946 31.2736 12.011 -0.23415
958 51 1 47.6044 27.3823 30.6412 1.008 0.12909
959 51 1 49.028 26.6069 31.5115 1.008 0.12909
960 51 1 47.5814 24.8799 32.3946 1.008 0.15086
961 51 1 45.4421 26.2951 30.7048 1.008 0.07222
962 51 1 45.4645 24.562 31.0588 1.008 0.07222
963 51 1 43.4342 24.4709 32.2478 1.008 0.09202
964 51 1 43.1493 25.638 33.5312 1.008 0.09202
965 51 1 43.2536 26.2608 30.5288 1.008 0.10167
966 51 1 43.2393 27.4953 31.7683 1.008 0.10167
967 51 1 41.018 26.9219 30.7113 1.008 0.08773
968 51 1 41.0557 25.3655 31.5253 1.008 0.08773
969 51 1 40.9998 26.8606 32.4691 1.008 0.08773
970 52 4 41.0587 8.21827 32.1319 15.999 -0.35515
971 52 2 41.6139 7.94267 30.861 12.011 0.03297
972 52 2 41.855 7.82435 33.2366 12.011 0.01762
973 52 2 42.0465 6.30245 33.3008 12.011 -0.23743
974 52 2 42.7893 5.8649 34.5633 12.011 -0.24423
975 52 3 40.7405 8.56695 29.8078 12.011 -0.1837
976 52 3 40.0053 7.86219 28.9438 12.011 -0.23415
977 52 1 39.999 6.78741 28.9736 1.008 0.12909
978 52 1 39.3819 8.34267 28.2043 1.008 0.12909
979 52 1 40.7105 9.6429 29.7792 1.008 0.15086
980 52 1 41.7088 6.87465 30.6798 1.008 0.07222
981 52 1 42.5885 8.38882 30.7594 1.008 0.07222
982 52 1 42.8137 8.33891 33.2487 1.008 0.09202
983 52 1 41.3215 8.14954 34.1256 1.008 0.09202
984 52 1 42.6208 5.94723 32.4456 1.008 0.10167
985 52 1 41.0748 5.80215 33.2768 1.008 0.10167
986 52 1 43.2129 4.8735 34.4054 1.008 0.08773
987 52 1 43.6114 6.5395 34.8087 1.008 0.08773
988 52 1 42.1137 5.80879 35.421 1.008 0.08773
989 53 4 3.58066 26.7812 39.3852 15.999 -0.35515
990 53 2 4.51588 26.6539 40.4421 12.011 0.03297
991 53 2 3.57109 28.0777 38.8064 12.011 0.01762
992 53 2 2.92325 29.1059 39.7461 12.011 -0.23743
993 53 2 2.72486 30.4728 39.0869 12.011 -0.24423
994 53 3 4.57669 25.2147 40.8925 12.011 -0.1837
995 53 3 4.14344 24.7753 42.0798 12.011 -0.23415
996 53 1 3.69692 25.4395 42.8007 1.008 0.12909
997 53 1 4.2314 23.7342 42.3508 1.008 0.12909
998 53 1 5.01107 24.5064 40.2066 1.008 0.15086
999 53 1 4.22079 27.2714 41.2865 1.008 0.07222
1000 53 1 5.5104 26.9623 40.1208 1.008 0.07222
1001 53 1 4.58205 28.3909 38.5441 1.008 0.09202
1002 53 1 3.00069 28.0256 37.8777 1.008 0.09202
1003 53 1 3.54275 29.2562 40.6284 1.008 0.10167
1004 53 1 1.9562 28.7408 40.0936 1.008 0.10167
1005 53 1 2.54201 31.2369 39.8466 1.008 0.08773
1006 53 1 3.60556 30.7762 38.5208 1.008 0.08773
1007 53 1 1.86838 30.468 38.4097 1.008 0.08773
1008 54 4 31.8352 3.34415 27.0437 15.999 -0.35515
1009 54 2 31.2523 4.62677 26.9033 12.011 0.03297
1010 54 2 31.6418 2.51757 25.9083 12.011 0.01762
1011 54 2 30.156 2.14204 25.7774 12.011 -0.23743
1012 54 2 29.867 1.06266 24.7328 12.011 -0.24423
1013 54 3 31.7259 5.4845 28.0501 12.011 -0.1837
1014 54 3 30.9174 6.08419 28.9278 12.011 -0.23415
1015 54 1 29.8528 5.96811 28.852 1.008 0.12909
1016 54 1 31.3088 6.69101 29.729 1.008 0.12909
1017 54 1 32.7916 5.61115 28.1499 1.008 0.15086
1018 54 1 30.1674 4.57407 26.9324 1.008 0.07222
1019 54 1 31.5437 5.09525 25.9637 1.008 0.07222
1020 54 1 32.0098 3.00372 25.0024 1.008 0.09202
1021 54 1 32.2425 1.61773 26.0506 1.008 0.09202
1022 54 1 29.564 3.01471 25.5082 1.008 0.10167
1023 54 1 29.7878 1.78988 26.7391 1.008 0.10167
1024 54 1 28.7951 1.0295 24.5218 1.008 0.08773
1025 54 1 30.3795 1.25637 23.7908 1.008 0.08773
1026 54 1 30.1611 0.0730188 25.0882 1.008 0.08773
1027 55 4 23.878 9.35829 40.6178 15.999 -0.35515
1028 55 2 24.1809 9.18519 41.9926 12.011 0.03297
1029 55 2 24.9498 8.98614 39.7654 12.011 0.01762
1030 55 2 26.1059 9.99603 39.8759 12.011 -0.23743
1031 55 2 27.2154 9.77772 38.8455 12.011 -0.24423
1032 55 3 22.9344 9.40285 42.8137 12.011 -0.1837
1033 55 3 22.7539 10.4293 43.6536 12.011 -0.23415
1034 55 1 23.5051 11.1905 43.7875 1.008 0.12909
1035 55 1 21.8462 10.5229 44.2281 1.008 0.12909
1036 55 1 22.1538 8.66616 42.7139 1.008 0.15086
1037 55 1 24.9363 9.89789 42.3146 1.008 0.07222
1038 55 1 24.5558 8.18032 42.1851 1.008 0.07222
1039 55 1 25.2882 7.97413 39.9939 1.008 0.09202
1040 55 1 24.5732 8.97159 38.7416 1.008 0.09202
1041 55 1 26.5674 9.94236 40.8603 1.008 0.10167
1042 55 1 25.7223 11.0101 39.759 1.008 0.10167
1043 55 1 28.112 10.3324 39.1339 1.008 0.08773
1044 55 1 27.4906 8.72643 38.766 1.008 0.08773
1045 55 1 26.9149 10.1298 37.8568 1.008 0.08773
1046 56 4 36.5685 42.7631 31.4006 15.999 -0.35515
1047 56 2 35.7185 43.0085 32.5072 12.011 0.03297
1048 56 2 37.9445 42.8865 31.7325 12.011 0.01762
1049 56 2 38.3104 44.3565 32.0022 12.011 -0.23743
1050 56 2 39.8068 44.5613 32.237 12.011 -0.24423
1051 56 3 34.3044 42.6101 32.1656 12.011 -0.1837
1052 56 3 33.2746 43.4617 32.1035 12.011 -0.23415
1053 56 1 33.4004 44.5168 32.2781 1.008 0.12909
1054 56 1 32.2825 43.1132 31.8652 1.008 0.12909
1055 56 1 34.1273 41.5636 31.9718 1.008 0.15086
1056 56 1 35.7278 44.0624 32.7728 1.008 0.07222
1057 56 1 36.0408 42.4337 33.3741 1.008 0.07222
1058 56 1 38.1897 42.2625 32.5938 1.008 0.09202
1059 56 1 38.5365 42.5085 30.8959 1.008 0.09202
1060 56 1 37.7981 44.7254 32.889 1.008 0.10167
1061 56 1 37.9932 44.9806 31.1654 1.008 0.10167
1062 56 1 39.9763 45.4956 32.7748 1.008 0.08773
1063 56 1 40.2341 43.7641 32.8442 1.008 0.08773
1064 56 1 40.3556 44.6031 31.2932 1.008 0.08773
1065 57 4 39.6254 7.79415 13.3824 15.999 -0.35515
1066 57 2 40.0265 7.93951 12.0309 12.011 0.03297
1067 57 2 40.3988 6.83573 14.0887 12.011 0.01762
1068 57 2 40.1006 5.41568 13.5799 12.011 -0.23743
1069 57 2 40.7499 4.31908 14.4255 12.011 -0.24423
1070 57 3 39.298 9.11153 11.4176 12.011 -0.1837
1071 57 3 38.3928 9.00958 10.4387 12.011 -0.23415
1072 57 1 38.1151 8.05436 10.0259 1.008 0.12909
1073 57 1 37.9141 9.88704 10.0325 1.008 0.12909
1074 57 1 39.5406 10.0895 11.7976 1.008 0.15086
1075 57 1 39.791 7.04752 11.4565 1.008 0.07222
1076 57 1 41.1 8.10627 11.9666 1.008 0.07222
1077 57 1 41.4634 7.06262 14.0107 1.008 0.09202
1078 57 1 40.137 6.90458 15.1458 1.008 0.09202
1079 57 1 40.4598 5.2882 12.5602 1.008 0.10167
1080 57 1 39.0236 5.24602 13.5647 1.008 0.10167
1081 57 1 40.7343 3.36868 13.8861 1.008 0.08773
1082 57 1 41.7899 4.5486 14.6556 1.008 0.08773
1083 57 1 40.2149 4.17128 15.3655 1.008 0.08773
1084 58 4 6.5103 19.1232 20.1822 15.999 -0.35515
1085 58 2 5.74596 18.4867 19.1725 12.011 0.03297
1086 58 2 7.63964 18.362 20.5845 12.011 0.01762
1087 58 2 7.20465 17.1098 21.366 12.011 -0.23743
1088 58 2 8.3711 16.3411 21.9901 12.011 -0.24423
1089 58 3 4.69843 19.4452 18.6645 12.011 -0.1837
1090 58 3 3.38392 19.3111 18.8757 12.011 -0.23415
1091 58 1 2.98513 18.4896 19.4482 1.008 0.12909
1092 58 1 2.68025 20.0238 18.475 1.008 0.12909
1093 58 1 5.05332 20.2837 18.0881 1.008 0.15086
1094 58 1 5.24837 17.6038 19.5662 1.008 0.07222
1095 58 1 6.37819 18.1809 18.3391 1.008 0.07222
1096 58 1 8.24877 18.0919 19.7205 1.008 0.09202
1097 58 1 8.2597 18.9923 21.2238 1.008 0.09202
1098 58 1 6.67661 16.4152 20.7157 1.008 0.10167
1099 58 1 6.51342 17.3915 22.1612 1.008 0.10167
1100 58 1 8.04377 15.343 22.2917 1.008 0.08773
1101 58 1 9.19454 16.217 21.2871 1.008 0.08773
1102 58 1 8.74956 16.8454 22.881 1.008 0.08773
1103 59 4 25.2578 38.8971 18.2399 15.999 -0.35515
1104 59 2 25.2639 40.1185 18.9512 12.011 0.03297
1105 59 2 26.5443 38.3006 18.1427 12.011 0.01762
1106 59 2 27.5387 39.1877 17.3689 12.011 -0.23743
1107 59 2 28.8376 38.4649 17.028 12.011 -0.24423
1108 59 3 23.8409 40.5787 19.1587 12.011 -0.1837
1109 59 3 23.3241 41.6916 18.6242 12.011 -0.23415
1110 59 1 23.9082 42.3346 17.9873 1.008 0.12909
1111 59 1 22.3056 41.9849 18.8221 1.008 0.12909
1112 59 1 23.2166 39.9666 19.7888 1.008 0.15086
1113 59 1 25.7988 40.8822 18.3904 1.008 0.07222
1114 59 1 25.7506 39.992 19.9179 1.008 0.07222
1115 59 1 26.9381 38.0582 19.1316 1.008 0.09202
1116 59 1 26.4252 37.3553 17.6138 1.008 0.09202
1117 59 1 27.8098 40.0741 17.9393 1.008 0.10167
1118 59 1 27.1005 39.5393 16.4334 1.008 0.10167
1119 59 1 29.536 39.1629 16.5708 1.008 0.08773
1120 59 1 29.3162 38.0698 17.9182 1.008 0.08773
1121 59 1 28.6767 37.6496 16.3254 1.008 0.08773
1122 60 4 30.7851 33.1039 43.793 15.999 -0.35515
1123 60 2 29.9005 32.8861 42.7042 12.011 0.03297
1124 60 2 31.7752 34.0998 43.5468 12.011 0.01762
1125 60 2 32.7914 33.6438 42.5 12.011 -0.23743
1126 60 2 33.9173 34.6358 42.2151 12.011 -0.24423
1127 60 3 28.756 32.0137 43.1608 12.011 -0.1837
1128 60 3 28.4612 30.8119 42.6502 12.011 -0.23415
1129 60 1 29.0461 30.3645 41.8634 1.008 0.12909
1130 60 1 27.6187 30.2475 43.0162 1.008 0.12909
1131 60 1 28.1408 32.4096 43.9475 1.008 0.15086
1132 60 1 30.4155 32.3851 41.8896 1.008 0.07222
1133 60 1 29.4997 33.8292 42.3305 1.008 0.07222
1134 60 1 31.3443 35.0468 43.2394 1.008 0.09202
1135 60 1 32.3046 34.2825 44.4808 1.008 0.09202
1136 60 1 32.2936 33.4424 41.554 1.008 0.10167
1137 60 1 33.2391 32.7213 42.8433 1.008 0.10167
1138 60 1 34.3572 34.4071 41.2405 1.008 0.08773
1139 60 1 33.5585 35.6653 42.1813 1.008 0.08773
1140 60 1 34.6944 34.5534 42.9801 1.008 0.08773
1141 61 4 23.7021 7.73996 1.59181 15.999 -0.35515
1142 61 2 23.1408 7.96505 2.87391 12.011 0.03297
1143 61 2 23.2981 6.50631 1.0151 12.011 0.01762
1144 61 2 23.8982 5.31716 1.78652 12.011 -0.23743
1145 61 2 23.6311 3.96277 1.12756 12.011 -0.24423
1146 61 3 23.4635 9.37172 3.31403 12.011 -0.1837
1147 61 3 24.2962 9.67572 4.31675 12.011 -0.23415
1148 61 1 24.8085 8.90989 4.87682 1.008 0.12909
1149 61 1 24.4789 10.7019 4.5934 1.008 0.12909
1150 61 1 22.9764 10.1691 2.77582 1.008 0.15086
1151 61 1 23.5508 7.27152 3.60427 1.008 0.07222
1152 61 1 22.0591 7.8394 2.85145 1.008 0.07222
1153 61 1 22.2108 6.44017 0.968353 1.008 0.09202
1154 61 1 23.6539 6.48452 51.9697 1.008 0.09202
1155 61 1 23.4936 5.25938 2.79469 1.008 0.10167
1156 61 1 24.9768 5.44789 1.8861 1.008 0.10167
1157 61 1 23.8714 3.15533 1.82323 1.008 0.08773
1158 61 1 22.5833 3.84778 0.847017 1.008 0.08773
1159 61 1 24.2465 3.82489 0.236817 1.008 0.08773
1160 62 4 32.3973 48.3618 15.8249 15.999 -0.35515
1161 62 2 32.4058 47.1622 15.0745 12.011 0.03297
1162 62 2 31.1921 49.0921 15.6653 12.011 0.01762
1163 62 2 31.1145 49.7058 14.2574 12.011 -0.23743
1164 62 2 29.9387 50.6654 14.0765 12.011 -0.24423
1165 62 3 33.6086 46.3395 15.4526 12.011 -0.1837
1166 62 3 34.6231 46.0638 14.6258 12.011 -0.23415
1167 62 1 34.6563 46.448 13.62 1.008 0.12909
1168 62 1 35.4481 45.4488 14.947 1.008 0.12909
1169 62 1 33.6253 45.9522 16.4563 1.008 0.15086
1170 62 1 32.456 47.3745 14.0104 1.008 0.07222
1171 62 1 31.5082 46.5774 15.2721 1.008 0.07222
1172 62 1 30.3281 48.4555 15.8645 1.008 0.09202
1173 62 1 31.1817 49.8889 16.41 1.008 0.09202
1174 62 1 31.0062 48.9318 13.5042 1.008 0.10167
1175 62 1 32.0402 50.2361 14.0316 1.008 0.10167
1176 62 1 29.7632 50.8483 13.0134 1.008 0.08773
1177 62 1 29.018 50.2587 14.4954 1.008 0.08773
1178 62 1 30.1366 51.629 14.5484 1.008 0.08773
1179 63 4 44.949 33.1747 18.0792 15.999 -0.35515
1180 63 2 46.0472 34.0686 18.0096 12.011 0.03297
1181 63 2 43.7117 33.8347 18.3025 12.011 0.01762
1182 63 2 43.6475 34.4075 19.729 12.011 -0.23743
1183 63 2 42.2726 34.9636 20.1066 12.011 -0.24423
1184 63 3 47.2773 33.3137 17.5705 12.011 -0.1837
1185 63 3 48.3379 33.0837 18.3534 12.011 -0.23415
1186 63 1 48.3672 33.4256 19.3752 1.008 0.12909
1187 63 1 49.1965 32.5452 17.9848 1.008 0.12909
1188 63 1 47.2853 32.9497 16.5557 1.008 0.15086
1189 63 1 46.2435 34.5147 18.9817 1.008 0.07222
1190 63 1 45.8521 34.8703 17.298 1.008 0.07222
1191 63 1 43.5545 34.6166 17.558 1.008 0.09202
1192 63 1 42.9127 33.104 18.169 1.008 0.09202
1193 63 1 44.3658 35.2157 19.8536 1.008 0.10167
1194 63 1 43.9155 33.6339 20.4494 1.008 0.10167
1195 63 1 42.355 35.5875 21.0003 1.008 0.08773
1196 63 1 41.8526 35.5825 19.3144 1.008 0.08773
1197 63 1 41.5646 34.163 20.3289 1.008 0.08773
1198 64 4 28.8005 6.13117 2.91414 15.999 -0.35515
1199 64 2 28.5882 5.48583 4.1575 12.011 0.03297
1200 64 2 29.1479 7.49996 3.05927 12.011 0.01762
1201 64 2 27.9364 8.33007 3.52006 12.011 -0.23743
1202 64 2 28.1978 9.83772 3.52687 12.011 -0.24423
1203 64 3 28.4083 4.00512 3.93713 12.011 -0.1837
1204 64 3 27.2593 3.35289 4.14806 12.011 -0.23415
1205 64 1 26.3748 3.87155 4.48224 1.008 0.12909
1206 64 1 27.186 2.28859 3.99294 1.008 0.12909
1207 64 1 29.2741 3.45623 3.60292 1.008 0.15086
1208 64 1 27.6945 5.87171 4.64115 1.008 0.07222
1209 64 1 29.4341 5.63965 4.82648 1.008 0.07222
1210 64 1 29.9844 7.61131 3.75038 1.008 0.09202
1211 64 1 29.4886 7.86312 2.08838 1.008 0.09202
1212 64 1 27.6341 8.05163 4.52752 1.008 0.10167
1213 64 1 27.081 8.13272 2.87247 1.008 0.10167
1214 64 1 27.434 10.3478 4.11845 1.008 0.08773
1215 64 1 29.1674 10.0791 3.96167 1.008 0.08773
1216 64 1 28.1617 10.2497 2.51658 1.008 0.08773
1217 65 4 45.2339 8.272 26.0536 15.999 -0.35515
1218 65 2 45.7306 7.37411 27.0254 12.011 0.03297
1219 65 2 45.5373 9.62096 26.3504 12.011 0.01762
1220 65 2 44.7348 10.0995 27.5678 12.011 -0.23743
1221 65 2 44.83 11.6015 27.8475 12.011 -0.24423
1222 65 3 45.6014 5.97839 26.4814 12.011 -0.1837
1223 65 3 44.7548 5.07766 26.9795 12.011 -0.23415
1224 65 1 44.1217 5.33897 27.8055 1.008 0.12909
1225 65 1 44.6732 4.08676 26.5646 1.008 0.12909
1226 65 1 46.2195 5.71421 25.6413 1.008 0.15086
1227 65 1 45.1631 7.44482 27.9506 1.008 0.07222
1228 65 1 46.7747 7.57091 27.2487 1.008 0.07222
1229 65 1 46.6117 9.75056 26.5016 1.008 0.09202
1230 65 1 45.2551 10.2035 25.4804 1.008 0.09202
1231 65 1 45.0935 9.58258 28.4489 1.008 0.10167
1232 65 1 43.6832 9.8465 27.4435 1.008 0.10167
1233 65 1 44.5905 11.8044 28.8944 1.008 0.08773
1234 65 1 45.8283 11.9875 27.6455 1.008 0.08773
1235 65 1 44.1245 12.175 27.2443 1.008 0.08773
1236 66 4 15.506 29.2804 47.1865 15.999 -0.35515
1237 66 2 15.3896 30.6801 47.3268 12.011 0.03297
1238 66 2 15.4008 28.8895 45.8335 12.011 0.01762
1239 66 2 13.9616 29.0663 45.3296 12.011 -0.23743
1240 66 2 13.7582 28.4047 43.9744 12.011 -0.24423
1241 66 3 15.7164 31.0206 48.7522 12.011 -0.1837
1242 66 3 14.8165 31.4571 49.6372 12.011 -0.23415
1243 66 1 13.786 31.5889 49.3614 1.008 0.12909
1244 66 1 15.0957 31.6883 50.6505 1.008 0.12909
1245 66 1 16.7409 30.8875 49.056 1.008 0.15086
1246 66 1 14.3797 31.0153 47.1049 1.008 0.07222
1247 66 1 16.0752 31.2029 46.6636 1.008 0.07222
1248 66 1 16.1226 29.4194 45.2071 1.008 0.09202
1249 66 1 15.6586 27.8386 45.7758 1.008 0.09202
1250 66 1 13.691 30.1162 45.2345 1.008 0.10167
1251 66 1 13.2587 28.6269 46.0319 1.008 0.10167
1252 66 1 12.82 28.7464 43.5257 1.008 0.08773
1253 66 1 14.5716 28.6392 43.2833 1.008 0.08773
1254 66 1 13.7139 27.3193 44.084 1.008 0.08773
1255 67 4 32.3562 43.2544 12.3535 15.999 -0.35515
1256 67 2 32.7453 42.9005 13.6705 12.011 0.03297
1257 67 2 31.882 44.5883 12.2533 12.011 0.01762
1258 67 2 30.5401 44.7518 12.9852 12.011 -0.23743
1259 67 2 29.8382 46.0858 12.7313 12.011 -0.24423
1260 67 3 33.4451 41.5662 13.617 12.011 -0.1837
1261 67 3 32.9253 40.4267 14.0856 12.011 -0.23415
1262 67 1 31.9622 40.4263 14.5617 1.008 0.12909
1263 67 1 33.4473 39.4878 14.0214 1.008 0.12909
1264 67 1 34.4272 41.554 13.1704 1.008 0.15086
1265 67 1 31.88 42.8175 14.3242 1.008 0.07222
1266 67 1 33.4278 43.6354 14.0927 1.008 0.07222
1267 67 1 32.6247 45.2881 12.6384 1.008 0.09202
1268 67 1 31.7467 44.8181 11.197 1.008 0.09202
1269 67 1 30.6829 44.6557 14.0594 1.008 0.10167
1270 67 1 29.8578 43.9599 12.6842 1.008 0.10167
1271 67 1 29.0634 46.2502 13.4845 1.008 0.08773
1272 67 1 30.5324 46.9184 12.7815 1.008 0.08773
1273 67 1 29.3582 46.1095 11.7523 1.008 0.08773
1274 68 4 14.2505 8.47922 4.90333 15.999 -0.35515
1275 68 2 13.3604 9.53425 5.22157 12.011 0.03297
1276 68 2 15.6245 8.77341 5.15293 12.011 0.01762
1277 68 2 16.1165 9.99629 4.34554 12.011 -0.23743
1278 68 2 17.6223 10.293 4.3782 12.011 -0.24423
1279 68 3 11.9234 9.09062 5.09113 12.011 -0.1837
1280 68 3 11.0517 9.63651 4.23529 12.011 -0.23415
1281 68 1 11.3392 10.4335 3.5681 1.008 0.12909
1282 68 1 10.0321 9.29267 4.18373 1.008 0.12909
1283 68 1 11.6002 8.29101 5.73735 1.008 0.15086
1284 68 1 13.5052 10.3534 4.52421 1.008 0.07222
1285 68 1 13.5297 9.89394 6.2354 1.008 0.07222
1286 68 1 15.7998 8.92184 6.22191 1.008 0.09202
1287 68 1 16.1789 7.88681 4.84725 1.008 0.09202
1288 68 1 15.6538 10.89 4.73883 1.008 0.10167
1289 68 1 15.8056 9.90608 3.30358 1.008 0.10167
1290 68 1 17.7914 11.3371 4.10029 1.008 0.08773
1291 68 1 18.0552 10.1397 5.36753 1.008 0.08773
1292 68 1 18.1645 9.68727 3.65229 1.008 0.08773
1293 69 4 7.29107 44.5204 29.0366 15.999 -0.35515
1294 69 2 6.79799 43.6809 28.0073 12.011 0.03297
1295 69 2 6.28722 44.8761 29.9782 12.011 0.01762
1296 69 2 5.26778 45.8381 29.3417 12.011 -0.23743
1297 69 2 4.27937 46.4449 30.3402 12.011 -0.24423
1298 69 3 7.95007 43.1723 27.1729 12.011 -0.1837
1299 69 3 8.18255 43.5194 25.9055 12.011 -0.23415
1300 69 1 7.54663 44.2165 25.3857 1.008 0.12909
1301 69 1 9.02436 43.1026 25.3743 1.008 0.12909
1302 69 1 8.62493 42.4727 27.6266 1.008 0.15086
1303 69 1 6.11777 44.2271 27.359 1.008 0.07222
1304 69 1 6.25773 42.8349 28.4298 1.008 0.07222
1305 69 1 5.79519 43.9844 30.3697 1.008 0.09202
1306 69 1 6.77144 45.3655 30.8252 1.008 0.09202
1307 69 1 4.67834 45.3261 28.5829 1.008 0.10167
1308 69 1 5.79271 46.654 28.8449 1.008 0.10167
1309 69 1 3.41176 46.8499 29.8132 1.008 0.08773
1310 69 1 3.91263 45.7041 31.0483 1.008 0.08773
1311 69 1 4.72952 47.2593 30.9098 1.008 0.08773
1312 70 4 29.2762 35.9609 39.3861 15.999 -0.35515
1313 70 2 29.0444 36.5276 38.1105 12.011 0.03297
1314 70 2 30.4164 35.1171 39.4169 12.011 0.01762
1315 70 2 30.1356 33.8124 38.651 12.011 -0.23743
1316 70 2 31.2424 32.7653 38.7894 12.011 -0.24423
1317 70 3 27.9675 37.5765 38.2337 12.011 -0.1837
1318 70 3 26.73 37.4421 37.7436 12.011 -0.23415
1319 70 1 26.4288 36.5413 37.2374 1.008 0.12909
1320 70 1 25.9974 38.2269 37.8449 1.008 0.12909
1321 70 1 28.2329 38.4824 38.7544 1.008 0.15086
1322 70 1 28.7167 35.7652 37.4084 1.008 0.07222
1323 70 1 29.9489 36.9897 37.7156 1.008 0.07222
1324 70 1 31.2879 35.6315 39.0083 1.008 0.09202
1325 70 1 30.6385 34.9003 40.4628 1.008 0.09202
1326 70 1 30.0274 34.0167 37.5872 1.008 0.10167
1327 70 1 29.1982 33.3751 38.9967 1.008 0.10167
1328 70 1 31.1545 32.0173 37.9988 1.008 0.08773
1329 70 1 32.2297 33.2184 38.7103 1.008 0.08773
1330 70 1 31.1829 32.2414 39.7431 1.008 0.08773
1331 71 4 31.6677 37.039 20.2525 15.999 -0.35515
1332 71 2 32.816 36.3211 20.6644 12.011 0.03297
1333 71 2 30.7202 36.196 19.6198 12.011 0.01762
1334 71 2 31.2408 35.7713 18.2343 12.011 -0.23743
1335 71 2 30.2162 34.9931 17.4098 12.011 -0.24423
1336 71 3 33.6296 37.1891 21.5848 12.011 -0.1837
1337 71 3 34.8392 37.6655 21.277 12.011 -0.23415
1338 71 1 35.3062 37.4644 20.3254 1.008 0.12909
1339 71 1 35.393 38.2662 21.9787 1.008 0.12909
1340 71 1 33.2016 37.419 22.5461 1.008 0.15086
1341 71 1 33.4296 36.0454 19.8068 1.008 0.07222
1342 71 1 32.5356 35.4111 21.1959 1.008 0.07222
1343 71 1 30.498 35.3286 20.2392 1.008 0.09202
1344 71 1 29.7797 36.7383 19.5342 1.008 0.09202
1345 71 1 32.1137 35.1291 18.3339 1.008 0.10167
1346 71 1 31.5547 36.6464 17.6644 1.008 0.10167
1347 71 1 30.7079 34.4797 16.5799 1.008 0.08773
1348 71 1 29.7056 34.2441 18.015 1.008 0.08773
1349 71 1 29.4593 35.652 16.9849 1.008 0.08773
1350 72 4 23.3041 25.2776 31.0287 15.999 -0.35515
1351 72 2 23.9844 25.5094 32.2494 12.011 0.03297
1352 72 2 23.0277 26.472 30.3126 12.011 0.01762
1353 72 2 21.9575 27.2982 31.0364 12.011 -0.23743
1354 72 2 21.4726 28.4953 30.2226 12.011 -0.24423
1355 72 3 24.4115 24.1837 32.8309 12.011 -0.1837
1356 72 3 23.9115 23.6503 33.9504 12.011 -0.23415
1357 72 1 23.1397 24.1439 34.5175 1.008 0.12909
1358 72 1 24.2704 22.7011 34.3172 1.008 0.12909
1359 72 1 25.1768 23.6428 32.3025 1.008 0.15086
1360 72 1 23.3382 26.0113 32.9658 1.008 0.07222
1361 72 1 24.8635 26.1332 32.0887 1.008 0.07222
1362 72 1 23.938 27.0546 30.1597 1.008 0.09202
1363 72 1 22.6512 26.2012 29.3245 1.008 0.09202
1364 72 1 22.3361 27.6827 31.9817 1.008 0.10167
1365 72 1 21.0976 26.6677 31.2648 1.008 0.10167
1366 72 1 20.9185 29.1681 30.8758 1.008 0.08773
1367 72 1 22.3004 29.0565 29.789 1.008 0.08773
1368 72 1 20.7997 28.1899 29.419 1.008 0.08773
1369 73 4 15.1448 44.1876 13.9304 15.999 -0.35515
1370 73 2 15.185 45.6058 13.8745 12.011 0.03297
1371 73 2 15.3435 43.6885 15.2414 12.011 0.01762
1372 73 2 16.7605 44.0343 15.7123 12.011 -0.23743
1373 73 2 17.1886 43.3021 16.9823 12.011 -0.24423
1374 73 3 14.6508 46.0467 12.5375 12.011 -0.1837
1375 73 3 15.3004 46.8535 11.6917 12.011 -0.23415
1376 73 1 16.275 47.2509 11.9276 1.008 0.12909
1377 73 1 14.8542 47.1478 10.7544 1.008 0.12909
1378 73 1 13.6655 45.6985 12.2809 1.008 0.15086
1379 73 1 16.2025 45.9755 13.9822 1.008 0.07222
1380 73 1 14.5875 46.05 14.6695 1.008 0.07222
1381 73 1 14.6015 44.0894 15.9287 1.008 0.09202
1382 73 1 15.2009 42.6086 15.2191 1.008 0.09202
1383 73 1 16.8351 45.1024 15.9128 1.008 0.10167
1384 73 1 17.4703 43.7999 14.918 1.008 0.10167
1385 73 1 18.1067 43.7476 17.3736 1.008 0.08773
1386 73 1 16.4265 43.3663 17.7591 1.008 0.08773
1387 73 1 17.3916 42.2488 16.7786 1.008 0.08773
1388 74 4 45.8751 36.5841 30.6234 15.999 -0.35515
1389 74 2 46.7268 36.0233 31.6097 12.011 0.03297
1390 74 2 44.9849 37.5639 31.141 12.011 0.01762
1391 74 2 43.9459 36.9216 32.0701 12.011 -0.23743
1392 74 2 42.855 37.871 32.5652 12.011 -0.24423
1393 74 3 47.7562 35.1521 30.9353 12.011 -0.1837
1394 74 3 47.779 33.8159 31.0113 12.011 -0.23415
1395 74 1 47.0341 33.271 31.5693 1.008 0.12909
1396 74 1 48.5476 33.2421 30.5182 1.008 0.12909
1397 74 1 48.5192 35.6578 30.3661 1.008 0.15086
1398 74 1 46.1629 35.4043 32.3019 1.008 0.07222
1399 74 1 47.2307 36.7987 32.1865 1.008 0.07222
1400 74 1 45.5343 38.3504 31.6646 1.008 0.09202
1401 74 1 44.4713 38.0234 30.2955 1.008 0.09202
1402 74 1 44.4378 36.5342 32.956 1.008 0.10167
1403 74 1 43.4583 36.0867 31.565 1.008 0.10167
1404 74 1 42.2955 37.408 33.3767 1.008 0.08773
1405 74 1 43.2592 38.8081 32.9483 1.008 0.08773
1406 74 1 42.135 38.0885 31.7783 1.008 0.08773
1407 75 4 31.6343 35.0661 25.7249 15.999 -0.35515
1408 75 2 32.9701 35.38 25.3955 12.011 0.03297
1409 75 2 30.7389 36.0601 25.272 12.011 0.01762
1410 75 2 30.8821 37.324 26.1326 12.011 -0.23743
1411 75 2 29.8145 38.3567 25.8002 12.011 -0.24423
1412 75 3 33.8369 34.1732 25.6424 12.011 -0.1837
1413 75 3 34.7743 34.0934 26.5922 12.011 -0.23415
1414 75 1 34.9673 34.9142 27.2618 1.008 0.12909
1415 75 1 35.3569 33.1955 26.724 1.008 0.12909
1416 75 1 33.6716 33.3247 25.0005 1.008 0.15086
1417 75 1 33.3013 36.1974 26.0236 1.008 0.07222
1418 75 1 33.0666 35.6783 24.3515 1.008 0.07222
1419 75 1 30.9085 36.2871 24.2178 1.008 0.09202
1420 75 1 29.7254 35.6649 25.3456 1.008 0.09202
1421 75 1 31.8456 37.8055 25.9707 1.008 0.10167
1422 75 1 30.823 37.0798 27.1947 1.008 0.10167
1423 75 1 30.1386 39.3421 26.14 1.008 0.08773
1424 75 1 29.6377 38.423 24.7278 1.008 0.08773
1425 75 1 28.8694 38.1261 26.2961 1.008 0.08773
1426 76 4 15.6151 16.7128 11.5358 15.999 -0.35515
1427 76 2 16.3291 16.617 10.3254 12.011 0.03297
1428 76 2 14.2498 16.3712 11.3212 12.011 0.01762
1429 76 2 13.5074 17.4675 10.5511 12.011 -0.23743
1430 76 2 11.9912 17.4047 10.7596 12.011 -0.24423
1431 76 3 17.8328 16.6761 10.4868 12.011 -0.1837
1432 76 3 18.6093 17.6274 9.9556 12.011 -0.23415
1433 76 1 18.194 18.4614 9.42147 1.008 0.12909
1434 76 1 19.682 17.5717 10.013 1.008 0.12909
1435 76 1 18.2999 15.846 10.9877 1.008 0.15086
1436 76 1 16.0041 17.4223 9.67979 1.008 0.07222
1437 76 1 16.0989 15.6717 9.83367 1.008 0.07222
1438 76 1 14.1592 15.4218 10.7925 1.008 0.09202
1439 76 1 13.7619 16.2223 12.2811 1.008 0.09202
1440 76 1 13.7185 17.3636 9.48662 1.008 0.10167
1441 76 1 13.8518 18.4529 10.8563 1.008 0.10167
1442 76 1 11.4662 17.9709 9.98158 1.008 0.08773
1443 76 1 11.6317 16.3733 10.7289 1.008 0.08773
1444 76 1 11.7101 17.8196 11.7299 1.008 0.08773
1445 77 4 16.5366 48.9073 20.8659 15.999 -0.35515
1446 77 2 16.2006 48.5574 22.1967 12.011 0.03297
1447 77 2 17.9356 48.9311 20.6359 12.011 0.01762
1448 77 2 18.5714 50.1379 21.3469 12.011 -0.23743
1449 77 2 20.0371 50.3661 20.9728 12.011 -0.24423
1450 77 3 14.7069 48.3656 22.276 12.011 -0.1837
1451 77 3 13.8839 49.1232 23.0093 12.011 -0.23415
1452 77 1 14.2487 49.9513 23.5947 1.008 0.12909
1453 77 1 12.8245 48.9229 23.0341 1.008 0.12909
1454 77 1 14.2941 47.5519 21.7018 1.008 0.15086
1455 77 1 16.4938 49.3399 22.893 1.008 0.07222
1456 77 1 16.6973 47.6339 22.4946 1.008 0.07222
1457 77 1 18.3977 47.9957 20.9557 1.008 0.09202
1458 77 1 18.0959 49.0124 19.5601 1.008 0.09202
1459 77 1 18.5296 50.0121 22.4274 1.008 0.10167
1460 77 1 18.0097 51.0419 21.11 1.008 0.10167
1461 77 1 20.5 51.0582 21.6808 1.008 0.08773
1462 77 1 20.6092 49.4387 20.9969 1.008 0.08773
1463 77 1 20.1289 50.8016 19.9762 1.008 0.08773
1464 78 4 5.35487 19.4668 2.66902 15.999 -0.35515
1465 78 2 6.44214 19.5164 3.57926 12.011 0.03297
1466 78 2 4.152 20.0056 3.19916 12.011 0.01762
1467 78 2 3.58284 19.1013 4.30618 12.011 -0.23743
1468 78 2 2.20583 19.5353 4.81425 12.011 -0.24423
1469 78 3 7.69778 19.0711 2.87269 12.011 -0.1837
1470 78 3 8.36017 17.9431 3.1545 12.011 -0.23415
1471 78 1 8.0262 17.2627 3.92098 1.008 0.12909
1472 78 1 9.26599 17.6919 2.62874 1.008 0.12909
1473 78 1 8.07786 19.7256 2.10555 1.008 0.15086
1474 78 1 6.27362 18.8494 4.42051 1.008 0.07222
1475 78 1 6.58709 20.5254 3.96627 1.008 0.07222
1476 78 1 4.3135 21.02 3.56756 1.008 0.09202
1477 78 1 3.43005 20.074 2.38428 1.008 0.09202
1478 78 1 4.24149 19.0931 5.16792 1.008 0.10167
1479 78 1 3.516 18.0719 3.95354 1.008 0.10167
1480 78 1 1.99041 19.0522 5.77101 1.008 0.08773
1481 78 1 2.15482 20.6122 4.97511 1.008 0.08773
1482 78 1 1.4143 19.2511 4.11786 1.008 0.08773
1483 79 4 39.5409 8.69626 35.7018 15.999 -0.35515
1484 79 2 39.6933 10.0838 35.4531 12.011 0.03297
1485 79 2 39.9806 8.29817 36.9939 12.011 0.01762
1486 79 2 41.4993 8.48683 37.1605 12.011 -0.23743
1487 79 2 42.0413 7.94782 38.487 12.011 -0.24423
1488 79 3 39.0249 10.4466 34.1498 12.011 -0.1837
1489 79 3 39.6727 10.8533 33.0505 12.011 -0.23415
1490 79 1 40.7456 10.9371 33.0216 1.008 0.12909
1491 79 1 39.1397 11.0844 32.1419 1.008 0.12909
1492 79 1 37.953 10.3568 34.1173 1.008 0.15086
1493 79 1 40.746 10.3378 35.3777 1.008 0.07222
1494 79 1 39.2515 10.6701 36.2554 1.008 0.07222
1495 79 1 39.4415 8.84134 37.7693 1.008 0.09202
1496 79 1 39.7309 7.24344 37.1192 1.008 0.09202
1497 79 1 41.7554 9.54196 37.1241 1.008 0.10167
1498 79 1 42.0332 7.99543 36.3487 1.008 0.10167
1499 79 1 43.0575 8.31321 38.6576 1.008 0.08773
1500 79 1 41.437 8.27243 39.3357 1.008 0.08773
1501 79 1 42.0793 6.85663 38.4919 1.008 0.08773
1502 80 4 14.5541 14.2386 3.88726 15.999 -0.35515
1503 80 2 14.9703 13.1364 3.10913 12.011 0.03297
1504 80 2 14.7726 14.1204 5.28229 12.011 0.01762
1505 80 2 13.8998 13.0476 5.94915 12.011 -0.23743
1506 80 2 14.0587 12.9726 7.47183 12.011 -0.24423
1507 80 3 14.7066 13.4751 1.65886 12.011 -0.1837
1508 80 3 13.8263 12.8247 0.887439 12.011 -0.23415
1509 80 1 13.2673 11.9898 1.27717 1.008 0.12909
1510 80 1 13.6597 13.1069 51.8467 1.008 0.12909
1511 80 1 15.2612 14.3029 1.23989 1.008 0.15086
1512 80 1 14.3871 12.256 3.36548 1.008 0.07222
1513 80 1 16.03 12.9237 3.2552 1.008 0.07222
1514 80 1 15.8283 13.9315 5.48062 1.008 0.09202
1515 80 1 14.5187 15.086 5.71881 1.008 0.09202
1516 80 1 14.1896 12.082 5.57648 1.008 0.10167
1517 80 1 12.8493 13.1868 5.69168 1.008 0.10167
1518 80 1 13.7489 11.9886 7.83364 1.008 0.08773
1519 80 1 15.0941 13.1241 7.77893 1.008 0.08773
1520 80 1 13.4413 13.7111 7.98296 1.008 0.08773
1521 81 4 48.0062 28.2458 48.4264 15.999 -0.35515
1522 81 2 47.5434 28.62 47.1407 12.011 0.03297
1523 81 2 49.011 27.2475 48.3662 12.011 0.01762
1524 81 2 48.3863 25.9078 47.95 12.011 -0.23743
1525 81 2 49.3531 24.7343 48.0411 12.011 -0.24423
1526 81 3 46.6663 29.8361 47.2725 12.011 -0.1837
1527 81 3 45.355 29.8377 47.0197 12.011 -0.23415
1528 81 1 44.8479 28.9453 46.7043 1.008 0.12909
1529 81 1 44.7668 30.7384 47.1082 1.008 0.12909
1530 81 1 47.1384 30.7549 47.5779 1.008 0.15086
1531 81 1 46.9604 27.821 46.6879 1.008 0.07222
1532 81 1 48.3735 28.8551 46.4752 1.008 0.07222
1533 81 1 49.8106 27.54 47.6832 1.008 0.09202
1534 81 1 49.4566 27.1521 49.3579 1.008 0.09202
1535 81 1 48.03 25.9441 46.9218 1.008 0.10167
1536 81 1 47.5302 25.7008 48.5846 1.008 0.10167
1537 81 1 48.9535 23.8617 47.5184 1.008 0.08773
1538 81 1 50.2923 24.9971 47.5647 1.008 0.08773
1539 81 1 49.545 24.4467 49.0773 1.008 0.08773
1540 82 4 14.7659 27.3444 23.5426 15.999 -0.35515
1541 82 2 14.6007 26.2492 24.4269 12.011 0.03297
1542 82 2 14.678 28.6036 24.1921 12.011 0.01762
1543 82 2 13.2336 28.8823 24.6409 12.011 -0.23743
1544 82 2 13.022 30.2985 25.1783 12.011 -0.24423
1545 82 3 14.909 24.9681 23.6908 12.011 -0.1837
1546 82 3 13.9995 24.0369 23.3797 12.011 -0.23415
1547 82 1 12.9582 24.1539 23.6322 1.008 0.12909
1548 82 1 14.285 23.133 22.865 1.008 0.12909
1549 82 1 15.9374 24.8053 23.4117 1.008 0.15086
1550 82 1 13.5794 26.202 24.7972 1.008 0.07222
1551 82 1 15.2697 26.3371 25.2827 1.008 0.07222
1552 82 1 15.3665 28.6511 25.0374 1.008 0.09202
1553 82 1 14.9921 29.3706 23.4819 1.008 0.09202
1554 82 1 12.9374 28.1929 25.4297 1.008 0.10167
1555 82 1 12.5511 28.7243 23.8051 1.008 0.10167
1556 82 1 12.074 30.355 25.7193 1.008 0.08773
1557 82 1 13.8108 30.5895 25.8719 1.008 0.08773
1558 82 1 12.9854 31.0323 24.3709 1.008 0.08773
1559 83 4 10.7981 41.4641 35.5988 15.999 -0.35515
1560 83 2 10.2482 41.1287 36.8654 12.011 0.03297
1561 83 2 11.9171 40.6659 35.258 12.011 0.01762
1562 83 2 13.1558 41.1654 36.0207 12.011 -0.23743
1563 83 2 14.4621 40.4799 35.602 12.011 -0.24423
1564 83 3 8.88499 41.765 37.0132 12.011 -0.1837
1565 83 3 8.61793 42.8992 37.6717 12.011 -0.23415
1566 83 1 9.38807 43.4784 38.1567 1.008 0.12909
1567 83 1 7.60097 43.2658 37.7178 1.008 0.12909
1568 83 1 8.07332 41.244 36.5353 1.008 0.15086
1569 83 1 10.9033 41.4461 37.6759 1.008 0.07222
1570 83 1 10.1052 40.0506 36.9491 1.008 0.07222
1571 83 1 11.7209 39.6131 35.4667 1.008 0.09202
1572 83 1 12.0734 40.7545 34.1809 1.008 0.09202
1573 83 1 13.0312 41.0015 37.0917 1.008 0.10167
1574 83 1 13.2707 42.2405 35.8652 1.008 0.10167
1575 83 1 15.2484 40.695 36.3314 1.008 0.08773
1576 83 1 14.3531 39.3961 35.556 1.008 0.08773
1577 83 1 14.8134 40.8363 34.6301 1.008 0.08773
1578 84 4 13.5918 31.6962 39.8258 15.999 -0.35515
1579 84 2 14.2459 32.6326 38.9916 12.011 0.03297
1580 84 2 12.1782 31.741 39.7016 12.011 0.01762
1581 84 2 11.6097 33.0487 40.2893 12.011 -0.23743
1582 84 2 10.0803 33.106 40.3552 12.011 -0.24423
1583 84 3 15.7229 32.335 38.961 12.011 -0.1837
1584 84 3 16.6769 33.1435 39.4395 12.011 -0.23415
1585 84 1 16.4388 34.0825 39.9087 1.008 0.12909
1586 84 1 17.7182 32.8668 39.3875 1.008 0.12909
1587 84 1 16.0028 31.3975 38.5105 1.008 0.15086
1588 84 1 14.0985 33.6441 39.3558 1.008 0.07222
1589 84 1 13.8662 32.5722 37.9741 1.008 0.07222
1590 84 1 11.8841 31.6079 38.6575 1.008 0.09202
1591 84 1 11.7849 30.8924 40.2623 1.008 0.09202
1592 84 1 11.9415 33.9068 39.7062 1.008 0.10167
1593 84 1 11.9819 33.1875 41.3025 1.008 0.10167
1594 84 1 9.76021 34.1195 40.6082 1.008 0.08773
1595 84 1 9.61756 32.8629 39.401 1.008 0.08773
1596 84 1 9.68241 32.435 41.1198 1.008 0.08773
1597 85 4 9.52601 28.1073 6.46148 15.999 -0.35515
1598 85 2 8.37437 28.372 7.24484 12.011 0.03297
1599 85 2 9.26193 27.2315 5.37586 12.011 0.01762
1600 85 2 8.97483 25.8167 5.90033 12.011 -0.23743
1601 85 2 8.87147 24.7513 4.8114 12.011 -0.24423
1602 85 3 8.65913 29.5112 8.19043 12.011 -0.1837
1603 85 3 8.69128 29.3906 9.52253 12.011 -0.23415
1604 85 1 8.52328 28.4432 10.0071 1.008 0.12909
1605 85 1 8.88908 30.2431 10.1524 1.008 0.12909
1606 85 1 8.83518 30.4784 7.74671 1.008 0.15086
1607 85 1 8.09126 27.4979 7.82545 1.008 0.07222
1608 85 1 7.52994 28.6425 6.61617 1.008 0.07222
1609 85 1 8.43597 27.6028 4.76796 1.008 0.09202
1610 85 1 10.1451 27.2134 4.73539 1.008 0.09202
1611 85 1 8.04404 25.791 6.46452 1.008 0.10167
1612 85 1 9.77571 25.5225 6.57612 1.008 0.10167
1613 85 1 8.41575 23.8442 5.21718 1.008 0.08773
1614 85 1 8.26162 25.0816 3.97111 1.008 0.08773
1615 85 1 9.86108 24.4828 4.44168 1.008 0.08773
1616 86 4 46.7973 43.9921 38.1254 15.999 -0.35515
1617 86 2 48.1817 44.2551 38.0047 12.011 0.03297
1618 86 2 46.0096 45.1646 38.2209 12.011 0.01762
1619 86 2 46.1743 45.7769 39.6164 12.011 -0.23743
1620 86 2 45.1501 46.8726 39.9154 12.011 -0.24423
1621 86 3 48.882 42.9727 37.6298 12.011 -0.1837
1622 86 3 49.7299 42.3072 38.4232 12.011 -0.23415
1623 86 1 49.9662 42.6573 39.4154 1.008 0.12909
1624 86 1 50.2051 41.3996 38.083 1.008 0.12909
1625 86 1 48.6691 42.5914 36.6431 1.008 0.15086
1626 86 1 48.5896 44.6495 38.9337 1.008 0.07222
1627 86 1 48.3665 44.9812 37.2178 1.008 0.07222
1628 86 1 46.2624 45.8772 37.4339 1.008 0.09202
1629 86 1 44.9666 44.886 38.0717 1.008 0.09202
1630 86 1 47.1725 46.1998 39.7247 1.008 0.10167
1631 86 1 46.0724 44.995 40.3695 1.008 0.10167
1632 86 1 45.4925 47.4909 40.749 1.008 0.08773
1633 86 1 45.0012 47.5253 39.0541 1.008 0.08773
1634 86 1 44.1853 46.44 40.193 1.008 0.08773
1635 87 4 19.7277 32.4462 4.93283 15.999 -0.35515
1636 87 2 18.5469 32.288 4.16422 12.011 0.03297
1637 87 2 20.6471 33.3565 4.34861 12.011 0.01762
1638 87 2 21.2765 32.752 3.08229 12.011 -0.23743
1639 87 2 22.419 33.5937 2.51084 12.011 -0.24423
1640 87 3 17.5386 31.4855 4.94929 12.011 -0.1837
1641 87 3 17.1206 30.2609 4.61002 12.011 -0.23415
1642 87 1 17.503 29.755 3.73862 1.008 0.12909
1643 87 1 16.3927 29.7347 5.2078 1.008 0.12909
1644 87 1 17.1361 31.9498 5.83498 1.008 0.15086
1645 87 1 18.761 31.7659 3.2349 1.008 0.07222
1646 87 1 18.1107 33.2562 3.92065 1.008 0.07222
1647 87 1 20.1608 34.3081 4.12728 1.008 0.09202
1648 87 1 21.4296 33.5619 5.08127 1.008 0.09202
1649 87 1 20.5317 32.645 2.29571 1.008 0.10167
1650 87 1 21.6599 31.7546 3.30034 1.008 0.10167
1651 87 1 22.6463 33.2766 1.49025 1.008 0.08773
1652 87 1 22.164 34.6528 2.4784 1.008 0.08773
1653 87 1 23.3293 33.4779 3.10208 1.008 0.08773
1654 88 4 25.3233 13.0495 48.4038 15.999 -0.35515
1655 88 2 25.0987 12.8291 49.7858 12.011 0.03297
1656 88 2 26.6995 13.1703 48.0788 12.011 0.01762
1657 88 2 27.2585 14.5024 48.6044 12.011 -0.23743
1658 88 2 28.6781 14.8019 48.1215 12.011 -0.24423
1659 88 3 23.6424 12.5003 50.0036 12.011 -0.1837
1660 88 3 22.771 13.3012 50.628 12.011 -0.23415
1661 88 1 23.0634 14.2645 51.0123 1.008 0.12909
1662 88 1 21.7446 12.9999 50.7677 1.008 0.12909
1663 88 1 23.3052 11.545 49.6338 1.008 0.15086
1664 88 1 25.3492 13.7163 50.3621 1.008 0.07222
1665 88 1 25.7046 12.001 50.1536 1.008 0.07222
1666 88 1 27.2671 12.3244 48.4716 1.008 0.09202
1667 88 1 26.7926 13.1385 46.992 1.008 0.09202
1668 88 1 27.2853 14.5032 49.6926 1.008 0.10167
1669 88 1 26.61 15.3248 48.3009 1.008 0.10167
1670 88 1 29.1185 15.5975 48.7273 1.008 0.08773
1671 88 1 29.3265 13.9301 48.2077 1.008 0.08773
1672 88 1 28.6841 15.1371 47.0828 1.008 0.08773
1673 89 4 12.029 14.7791 2.82228 15.999 -0.35515
1674 89 2 11.6981 16.1357 3.03799 12.011 0.03297
1675 89 2 10.9852 14.0013 2.28765 12.011 0.01762
1676 89 2 9.9284 13.7465 3.35529 12.011 -0.23743
1677 89 2 8.86253 12.7714 2.8634 12.011 -0.24423
1678 89 3 12.9887 16.8308 3.37566 12.011 -0.1837
1679 89 3 13.2661 17.3804 4.56078 12.011 -0.23415
1680 89 1 12.562 17.3835 5.3753 1.008 0.12909
1681 89 1 14.2356 17.8182 4.74012 1.008 0.12909
1682 89 1 13.7501 16.8288 2.61417 1.008 0.15086
1683 89 1 10.995 16.2449 3.86413 1.008 0.07222
1684 89 1 11.2723 16.5854 2.14033 1.008 0.07222
1685 89 1 10.5668 14.4595 1.39096 1.008 0.09202
1686 89 1 11.4038 13.0402 2.00031 1.008 0.09202
1687 89 1 9.44306 14.677 3.6464 1.008 0.10167
1688 89 1 10.4112 13.3319 4.24264 1.008 0.10167
1689 89 1 7.92927 12.9222 3.40892 1.008 0.08773
1690 89 1 8.65338 12.9229 1.80415 1.008 0.08773
1691 89 1 9.18109 11.7367 3.00847 1.008 0.08773
1692 90 4 22.6996 27.2092 20.5137 15.999 -0.35515
1693 90 2 21.4365 27.8224 20.7084 12.011 0.03297
1694 90 2 23.5757 28.007 19.7332 12.011 0.01762
1695 90 2 23.1149 28.0267 18.2648 12.011 -0.23743
1696 90 2 24.0706 28.7524 17.3135 12.011 -0.24423
1697 90 3 20.6469 27.0597 21.7414 12.011 -0.1837
1698 90 3 19.508 26.4074 21.486 12.011 -0.23415
1699 90 1 19.0874 26.3676 20.4942 1.008 0.12909
1700 90 1 18.9736 25.897 22.2705 1.008 0.12909
1701 90 1 21.0287 27.0663 22.7499 1.008 0.15086
1702 90 1 20.8686 27.8382 19.7809 1.008 0.07222
1703 90 1 21.554 28.8494 21.0526 1.008 0.07222
1704 90 1 23.6373 29.0183 20.139 1.008 0.09202
1705 90 1 24.5743 27.5763 19.8074 1.008 0.09202
1706 90 1 22.1547 28.5311 18.1749 1.008 0.10167
1707 90 1 22.9709 27.0063 17.9067 1.008 0.10167
1708 90 1 23.552 28.9995 16.3843 1.008 0.08773
1709 90 1 24.4437 29.683 17.7404 1.008 0.08773
1710 90 1 24.9248 28.1362 17.0391 1.008 0.08773
1711 91 4 9.73022 19.6052 48.9056 15.999 -0.35515
1712 91 2 9.17281 19.9117 50.1721 12.011 0.03297
1713 91 2 10.4512 18.3836 48.9021 12.011 0.01762
1714 91 2 11.7615 18.5333 49.693 12.011 -0.23743
1715 91 2 12.6981 17.3319 49.5666 12.011 -0.24423
1716 91 3 8.29492 21.1275 50.0268 12.011 -0.1837
1717 91 3 8.56918 22.3173 50.5753 12.011 -0.23415
1718 91 1 9.45799 22.4724 51.1633 1.008 0.12909
1719 91 1 7.91419 23.1627 50.4431 1.008 0.12909
1720 91 1 7.39933 21.0045 49.4391 1.008 0.15086
1721 91 1 9.95336 20.1351 50.8954 1.008 0.07222
1722 91 1 8.58044 19.0796 50.5532 1.008 0.07222
1723 91 1 9.83928 17.5745 49.304 1.008 0.09202
1724 91 1 10.676 18.131 47.8645 1.008 0.09202
1725 91 1 11.5575 18.6691 50.7537 1.008 0.10167
1726 91 1 12.2944 19.4215 49.3566 1.008 0.10167
1727 91 1 13.4666 17.3719 50.3425 1.008 0.08773
1728 91 1 12.1627 16.3902 49.6851 1.008 0.08773
1729 91 1 13.2045 17.3199 48.5999 1.008 0.08773
1730 92 4 26.4281 31.3229 29.5944 15.999 -0.35515
1731 92 2 25.6063 31.3724 28.4407 12.011 0.03297
1732 92 2 26.1274 32.3657 30.5059 12.011 0.01762
1733 92 2 26.5951 33.6934 29.8997 12.011 -0.23743
1734 92 2 26.5415 34.8672 30.8534 12.011 -0.24423
1735 92 3 25.8529 30.1319 27.625 12.011 -0.1837
1736 92 3 26.404 30.1323 26.4068 12.011 -0.23415
1737 92 1 26.7121 31.0484 25.9282 1.008 0.12909
1738 92 1 26.5555 29.2126 25.8648 1.008 0.12909
1739 92 1 25.556 29.1964 28.0698 1.008 0.15086
1740 92 1 25.8387 32.2342 27.8203 1.008 0.07222
1741 92 1 24.5523 31.4258 28.7135 1.008 0.07222
1742 92 1 25.0603 32.3922 30.7402 1.008 0.09202
1743 92 1 26.6587 32.1767 31.4403 1.008 0.09202
1744 92 1 25.9764 33.9735 29.05 1.008 0.10167
1745 92 1 27.6211 33.5974 29.5516 1.008 0.10167
1746 92 1 26.6925 35.8043 30.3127 1.008 0.08773
1747 92 1 25.5675 34.9012 31.3355 1.008 0.08773
1748 92 1 27.3256 34.7973 31.6046 1.008 0.08773
1749 93 4 43.3578 21.5048 50.4383 15.999 -0.35515
1750 93 2 43.4461 20.1716 49.9676 12.011 0.03297
1751 93 2 42.1803 21.8061 51.1697 12.011 0.01762
1752 93 2 40.9371 21.8058 50.2628 12.011 -0.23743
1753 93 2 39.6694 22.2702 50.9868 12.011 -0.24423
1754 93 3 44.8181 19.9797 49.3603 12.011 -0.1837
1755 93 3 45.0501 19.8035 48.0536 12.011 -0.23415
1756 93 1 44.2456 19.8 47.3402 1.008 0.12909
1757 93 1 46.0524 19.6759 47.6744 1.008 0.12909
1758 93 1 45.6552 20.0016 50.0399 1.008 0.15086
1759 93 1 42.6901 19.9824 49.2093 1.008 0.07222
1760 93 1 43.307 19.4556 50.7773 1.008 0.07222
1761 93 1 42.0598 21.1189 0.0227967 1.008 0.09202
1762 93 1 42.3121 22.8048 51.5914 1.008 0.09202
1763 93 1 40.7447 20.8054 49.8785 1.008 0.10167
1764 93 1 41.1012 22.458 49.4038 1.008 0.10167
1765 93 1 38.781 21.9896 50.4153 1.008 0.08773
1766 93 1 39.5815 21.8155 51.9742 1.008 0.08773
1767 93 1 39.6553 23.356 51.1083 1.008 0.08773
1768 94 4 44.4537 12.5624 24.8412 15.999 -0.35515
1769 94 2 45.4378 12.2962 23.8602 12.011 0.03297
1770 94 2 43.1772 12.0542 24.4918 12.011 0.01762
1771 94 2 42.5484 12.9278 23.3972 12.011 -0.23743
1772 94 2 41.0797 12.5959 23.1316 12.011 -0.24423
1773 94 3 46.795 12.5691 24.4618 12.011 -0.1837
1774 94 3 47.5964 13.5773 24.0985 12.011 -0.23415
1775 94 1 47.3076 14.2854 23.3342 1.008 0.12909
1776 94 1 48.5611 13.7093 24.5651 1.008 0.12909
1777 94 1 47.1266 11.891 25.2308 1.008 0.15086
1778 94 1 45.2854 12.93 22.9975 1.008 0.07222
1779 94 1 45.4004 11.261 23.5187 1.008 0.07222
1780 94 1 43.2405 11.0089 24.1791 1.008 0.09202
1781 94 1 42.5471 12.0802 25.3825 1.008 0.09202
1782 94 1 43.0881 12.8172 22.4582 1.008 0.10167
1783 94 1 42.6052 13.979 23.6786 1.008 0.10167
1784 94 1 40.76 13.0127 22.173 1.008 0.08773
1785 94 1 40.9179 11.5217 23.0989 1.008 0.08773
1786 94 1 40.4298 13.0166 23.9012 1.008 0.08773
1787 95 4 35.2929 8.92369 26.1835 15.999 -0.35515
1788 95 2 34.2383 8.06074 26.5679 12.011 0.03297
1789 95 2 34.9901 10.2932 26.3864 12.011 0.01762
1790 95 2 33.9057 10.7547 25.4016 12.011 -0.23743
1791 95 2 33.706 12.27 25.3883 12.011 -0.24423
1792 95 3 34.7359 6.64116 26.4986 12.011 -0.1837
1793 95 3 34.3293 5.73705 25.6001 12.011 -0.23415
1794 95 1 33.6057 5.9833 24.8414 1.008 0.12909
1795 95 1 34.6942 4.72239 25.6271 1.008 0.12909
1796 95 1 35.4503 6.35443 27.2519 1.008 0.15086
1797 95 1 33.3841 8.16767 25.902 1.008 0.07222
1798 95 1 33.914 8.27711 27.5868 1.008 0.07222
1799 95 1 34.6813 10.4725 27.4169 1.008 0.09202
1800 95 1 35.9015 10.8698 26.2223 1.008 0.09202
1801 95 1 32.9467 10.3014 25.6457 1.008 0.10167
1802 95 1 34.1648 10.4329 24.3927 1.008 0.10167
1803 95 1 32.776 12.5257 24.8749 1.008 0.08773
1804 95 1 33.6476 12.6751 26.3985 1.008 0.08773
1805 95 1 34.522 12.771 24.8639 1.008 0.08773
1806 96 4 9.17282 6.24924 32.6616 15.999 -0.35515
1807 96 2 8.68933 6.56633 33.9566 12.011 0.03297
1808 96 2 9.76465 4.96106 32.5939 12.011 0.01762
1809 96 2 11.1027 4.94001 33.3514 12.011 -0.23743
1810 96 2 11.8977 3.64904 33.1512 12.011 -0.24423
1811 96 3 7.89101 7.8455 33.8929 12.011 -0.1837
1812 96 3 8.26631 8.99698 34.4622 12.011 -0.23415
1813 96 1 9.19364 9.08112 35.0049 1.008 0.12909
1814 96 1 7.64816 9.8783 34.3959 1.008 0.12909
1815 96 1 6.95611 7.80745 33.3572 1.008 0.15086
1816 96 1 9.51404 6.7036 34.6521 1.008 0.07222
1817 96 1 8.05119 5.77032 34.3394 1.008 0.07222
1818 96 1 9.0835 4.20205 32.9822 1.008 0.09202
1819 96 1 9.93732 4.72496 31.543 1.008 0.09202
1820 96 1 10.9369 5.05081 34.4219 1.008 0.10167
1821 96 1 11.7238 5.77875 33.0344 1.008 0.10167
1822 96 1 12.6814 3.57016 33.9088 1.008 0.08773
1823 96 1 11.2644 2.76718 33.2463 1.008 0.08773
1824 96 1 12.3807 3.62388 32.173 1.008 0.08773
1825 97 4 18.2229 30.4845 34.9382 15.999 -0.35515
1826 97 2 17.0438 29.9277 34.384 12.011 0.03297
1827 97 2 18.8368 31.4312 34.0773 12.011 0.01762
1828 97 2 19.4485 30.7491 32.841 12.011 -0.23743
1829 97 2 20.2664 31.7123 31.9761 12.011 -0.24423
1830 97 3 16.3623 29.0697 35.4187 12.011 -0.1837
1831 97 3 16.2734 27.7379 35.3313 12.011 -0.23415
1832 97 1 16.6995 27.1954 34.5053 1.008 0.12909
1833 97 1 15.768 27.1585 36.0842 1.008 0.12909
1834 97 1 15.9209 29.5723 36.2651 1.008 0.15086
1835 97 1 17.2827 29.2984 33.5303 1.008 0.07222
1836 97 1 16.3567 30.7061 34.0543 1.008 0.07222
1837 97 1 18.1193 32.1977 33.7804 1.008 0.09202
1838 97 1 19.6258 31.9341 34.6385 1.008 0.09202
1839 97 1 18.6696 30.3313 32.2049 1.008 0.10167
1840 97 1 20.0865 29.9192 33.1485 1.008 0.10167
1841 97 1 20.3891 31.3173 30.9657 1.008 0.08773
1842 97 1 19.7748 32.6794 31.8788 1.008 0.08773
1843 97 1 21.2621 31.8709 32.393 1.008 0.08773
1844 98 4 41.1367 47.785 44.4594 15.999 -0.35515
1845 98 2 41.8918 48.9845 44.419 12.011 0.03297
1846 98 2 40.0219 47.8043 43.5821 12.011 0.01762
1847 98 2 38.938 48.7623 44.1001 12.011 -0.23743
1848 98 2 37.631 48.6849 43.3093 12.011 -0.24423
1849 98 3 43.1622 48.7927 45.2091 12.011 -0.1837
1850 98 3 43.424 49.3963 46.374 12.011 -0.23415
1851 98 1 42.716 50.0667 46.8322 1.008 0.12909
1852 98 1 44.357 49.2305 46.8884 1.008 0.12909
1853 98 1 43.8977 48.1285 44.7852 1.008 0.15086
1854 98 1 41.3306 49.8087 44.8531 1.008 0.07222
1855 98 1 42.1511 49.2525 43.3946 1.008 0.07222
1856 98 1 40.3314 48.0688 42.5694 1.008 0.09202
1857 98 1 39.612 46.7951 43.5403 1.008 0.09202
1858 98 1 39.2849 49.7937 44.056 1.008 0.10167
1859 98 1 38.7223 48.5425 45.1458 1.008 0.10167
1860 98 1 36.9999 49.5462 43.542 1.008 0.08773
1861 98 1 37.811 48.6919 42.2347 1.008 0.08773
1862 98 1 37.0663 47.7846 43.5592 1.008 0.08773
1863 99 4 43.9568 48.182 30.7455 15.999 -0.35515
1864 99 2 44.1799 48.0442 29.3558 12.011 0.03297
1865 99 2 42.7014 47.7111 31.2057 12.011 0.01762
1866 99 2 41.554 48.5404 30.6052 12.011 -0.23743
1867 99 2 40.2054 48.2822 31.2799 12.011 -0.24423
1868 99 3 45.5664 48.559 29.0385 12.011 -0.1837
1869 99 3 45.8399 49.5315 28.1584 12.011 -0.23415
1870 99 1 45.0629 50.0469 27.61 1.008 0.12909
1871 99 1 46.8632 49.8181 27.9651 1.008 0.12909
1872 99 1 46.3839 48.0688 29.5428 1.008 0.15086
1873 99 1 43.4529 48.6066 28.771 1.008 0.07222
1874 99 1 44.0996 46.9916 29.0843 1.008 0.07222
1875 99 1 42.5752 46.6517 30.9785 1.008 0.09202
1876 99 1 42.6959 47.805 32.293 1.008 0.09202
1877 99 1 41.4509 48.2744 29.5559 1.008 0.10167
1878 99 1 41.7645 49.61 30.662 1.008 0.10167
1879 99 1 39.3824 48.6284 30.6485 1.008 0.08773
1880 99 1 40.0572 47.2171 31.4409 1.008 0.08773
1881 99 1 40.1256 48.7961 32.2413 1.008 0.08773
1882 100 4 16.6135 24.2955 4.03995 15.999 -0.35515
1883 100 2 16.0713 24.0525 2.755 12.011 0.03297
1884 100 2 15.6346 24.5109 5.04859 12.011 0.01762
1885 100 2 14.9744 25.8955 4.89372 12.011 -0.23743
1886 100 2 13.9654 26.243 5.99351 12.011 -0.24423
1887 100 3 17.1814 23.7361 1.7801 12.011 -0.1837
1888 100 3 17.5227 24.513 0.742991 12.011 -0.23415
1889 100 1 17.0195 25.4467 0.54235 1.008 0.12909
1890 100 1 18.3134 24.2196 0.0684063 1.008 0.12909
1891 100 1 17.7086 22.8091 1.93687 1.008 0.15086
1892 100 1 15.5444 24.9317 2.39515 1.008 0.07222
1893 100 1 15.3706 23.2162 2.78533 1.008 0.07222
1894 100 1 14.8868 23.7147 5.03734 1.008 0.09202
1895 100 1 16.1393 24.4625 6.01459 1.008 0.09202
1896 100 1 14.4378 25.9523 3.95132 1.008 0.10167
1897 100 1 15.7376 26.6747 4.86652 1.008 0.10167
1898 100 1 13.2432 26.9768 5.62467 1.008 0.08773
1899 100 1 13.4049 25.3648 6.31827 1.008 0.08773
1900 100 1 14.4604 26.6899 6.85771 1.008 0.08773
1901 101 4 23.7712 19.2312 17.1984 15.999 -0.35515
1902 101 2 24.5231 18.0568 16.9492 12.011 0.03297
1903 101 2 23.0442 19.6477 16.0556 12.011 0.01762
1904 101 2 24.0136 20.2057 14.9994 12.011 -0.23743
1905 101 2 23.3315 20.9508 13.852 12.011 -0.24423
1906 101 3 25.1189 17.5585 18.2399 12.011 -0.1837
1907 101 3 26.4329 17.518 18.4845 12.011 -0.23415
1908 101 1 27.1502 17.8614 17.7593 1.008 0.12909
1909 101 1 26.81 17.1596 19.4284 1.008 0.12909
1910 101 1 24.4318 17.2215 18.9992 1.008 0.15086
1911 101 1 25.3358 18.2556 16.2558 1.008 0.07222
1912 101 1 23.8959 17.2775 16.5208 1.008 0.07222
1913 101 1 22.4527 18.8234 15.6601 1.008 0.09202
1914 101 1 22.3342 20.4154 16.3606 1.008 0.09202
1915 101 1 24.5964 19.4005 14.555 1.008 0.10167
1916 101 1 24.7254 20.8814 15.4735 1.008 0.10167
1917 101 1 24.0542 21.1214 13.0542 1.008 0.08773
1918 101 1 22.5068 20.3785 13.432 1.008 0.08773
1919 101 1 22.9537 21.9278 14.1557 1.008 0.08773
1920 102 4 49.0966 25.7588 3.59984 15.999 -0.35515
1921 102 2 48.7646 25.8492 2.22418 12.011 0.03297
1922 102 2 47.9936 26.0473 4.44713 12.011 0.01762
1923 102 2 47.6602 27.5481 4.39908 12.011 -0.23743
1924 102 2 46.6209 27.9812 5.43413 12.011 -0.24423
1925 102 3 49.9088 25.3136 1.39951 12.011 -0.1837
1926 102 3 50.686 26.063 0.608947 12.011 -0.23415
1927 102 1 50.5414 27.1278 0.52257 1.008 0.12909
1928 102 1 51.4799 25.62 0.0295917 1.008 0.12909
1929 102 1 50.0872 24.252 1.45672 1.008 0.15086
1930 102 1 48.5808 26.8823 1.93922 1.008 0.07222
1931 102 1 47.8679 25.271 2.0004 1.008 0.07222
1932 102 1 47.1248 25.4455 4.17362 1.008 0.09202
1933 102 1 48.2655 25.7646 5.46548 1.008 0.09202
1934 102 1 47.27 27.8236 3.42061 1.008 0.10167
1935 102 1 48.5659 28.1341 4.55592 1.008 0.10167
1936 102 1 46.236 28.9732 5.18522 1.008 0.08773
1937 102 1 45.7715 27.2992 5.46248 1.008 0.08773
1938 102 1 47.0515 28.0382 6.43511 1.008 0.08773
1939 103 4 44.4581 17.0978 16.4005 15.999 -0.35515
1940 103 2 44.3495 17.728 15.137 12.011 0.03297
1941 103 2 44.6565 15.6966 16.2769 12.011 0.01762
1942 103 2 43.3442 14.9721 15.9683 12.011 -0.23743
1943 103 2 43.4823 13.4467 15.9617 12.011 -0.24423
1944 103 3 44.3309 19.2285 15.2994 12.011 -0.1837
1945 103 3 43.2812 20.0095 15.0204 12.011 -0.23415
1946 103 1 42.3491 19.6007 14.6739 1.008 0.12909
1947 103 1 43.3429 21.0798 15.1304 1.008 0.12909
1948 103 1 45.2443 19.6872 15.6441 1.008 0.15086
1949 103 1 43.4463 17.4067 14.6248 1.008 0.07222
1950 103 1 45.2051 17.4712 14.5148 1.008 0.07222
1951 103 1 45.3965 15.4698 15.5095 1.008 0.09202
1952 103 1 45.0512 15.3187 17.2173 1.008 0.09202
1953 103 1 42.9626 15.2717 14.9955 1.008 0.10167
1954 103 1 42.5958 15.2493 16.7119 1.008 0.10167
1955 103 1 42.7638 12.9927 15.2739 1.008 0.08773
1956 103 1 44.4854 13.138 15.6574 1.008 0.08773
1957 103 1 43.2752 13.0416 16.9557 1.008 0.08773
1958 104 4 15.2589 7.68486 2.11795 15.999 -0.35515
1959 104 2 15.3213 8.28484 0.834418 12.011 0.03297
1960 104 2 14.267 6.66835 2.20417 12.011 0.01762
1961 104 2 12.8504 7.23017 1.99268 12.011 -0.23743
1962 104 2 11.7358 6.29426 2.48001 12.011 -0.24423
1963 104 3 16.5142 9.19992 0.717199 12.011 -0.1837
1964 104 3 16.4345 10.4812 0.349953 12.011 -0.23415
1965 104 1 15.4845 10.9389 0.127689 1.008 0.12909
1966 104 1 17.3136 11.0962 0.244858 1.008 0.12909
1967 104 1 17.4775 8.77526 0.905206 1.008 0.15086
1968 104 1 14.4091 8.85148 0.628417 1.008 0.07222
1969 104 1 15.4349 7.51362 0.0784128 1.008 0.07222
1970 104 1 14.4664 5.86388 1.49795 1.008 0.09202
1971 104 1 14.3296 6.23763 3.20017 1.008 0.09202
1972 104 1 12.6787 7.44301 0.93651 1.008 0.10167
1973 104 1 12.7494 8.17749 2.52621 1.008 0.10167
1974 104 1 10.7569 6.66928 2.16345 1.008 0.08773
1975 104 1 11.8526 5.28325 2.08288 1.008 0.08773
1976 104 1 11.7366 6.24307 3.57177 1.008 0.08773
1977 105 4 9.50559 40.1203 30.7116 15.999 -0.35515
1978 105 2 9.88631 39.2787 29.6438 12.011 0.03297
1979 105 2 9.6949 41.498 30.4278 12.011 0.01762
1980 105 2 11.1779 41.8927 30.3991 12.011 -0.23743
1981 105 2 11.3673 43.4134 30.436 12.011 -0.24423
1982 105 3 9.51297 37.8519 29.9588 12.011 -0.1837
1983 105 3 10.3969 36.8554 30.0772 12.011 -0.23415
1984 105 1 11.4525 37.0195 29.9506 1.008 0.12909
1985 105 1 10.0766 35.8514 30.304 1.008 0.12909
1986 105 1 8.46201 37.64 30.0879 1.008 0.15086
1987 105 1 10.9611 39.3288 29.5091 1.008 0.07222
1988 105 1 9.39957 39.5827 28.7167 1.008 0.07222
1989 105 1 9.21619 41.7634 29.4927 1.008 0.09202
1990 105 1 9.18957 42.0813 31.1924 1.008 0.09202
1991 105 1 11.6616 41.508 29.5033 1.008 0.10167
1992 105 1 11.6965 41.4618 31.2544 1.008 0.10167
1993 105 1 12.368 43.6879 30.0816 1.008 0.08773
1994 105 1 10.6287 43.9197 29.8054 1.008 0.08773
1995 105 1 11.2564 43.7886 31.4597 1.008 0.08773
1996 106 4 8.61578 29.9837 35.8004 15.999 -0.35515
1997 106 2 8.01449 29.8823 37.0847 12.011 0.03297
1998 106 2 7.72451 29.892 34.701 12.011 0.01762
1999 106 2 7.09243 28.4926 34.6096 12.011 -0.23743
2000 106 2 6.19689 28.315 33.3788 12.011 -0.24423
2001 106 3 9.09516 30.0762 38.1225 12.011 -0.1837
2002 106 3 9.56915 29.1114 38.9237 12.011 -0.23415
2003 106 1 9.20658 28.0979 38.8845 1.008 0.12909
2004 106 1 10.3587 29.3027 39.6304 1.008 0.12909
2005 106 1 9.53155 31.0581 38.1701 1.008 0.15086
2006 106 1 7.56457 28.9046 37.24 1.008 0.07222
2007 106 1 7.24318 30.6403 37.2259 1.008 0.07222
2008 106 1 6.96432 30.6737 34.7521 1.008 0.09202
2009 106 1 8.3131 30.0797 33.801 1.008 0.09202
2010 106 1 6.47124 28.3047 35.4827 1.008 0.10167
2011 106 1 7.87415 27.7299 34.5889 1.008 0.10167
2012 106 1 5.53181 27.458 33.5192 1.008 0.08773
2013 106 1 5.56733 29.1917 33.2095 1.008 0.08773
2014 106 1 6.785 28.1308 32.4761 1.008 0.08773
2015 107 4 11.4803 40.7076 15.4635 15.999 -0.35515
2016 107 2 12.1165 39.5027 15.0758 12.011 0.03297
2017 107 2 11.6623 41.0177 16.8366 12.011 0.01762
2018 107 2 10.8728 40.0371 17.7206 12.011 -0.23743
2019 107 2 10.8711 40.4145 19.2025 12.011 -0.24423
2020 107 3 12.0535 39.3742 13.5744 12.011 -0.1837
2021 107 3 11.3376 38.4465 12.9289 12.011 -0.23415
2022 107 1 10.7351 37.7278 13.46 1.008 0.12909
2023 107 1 11.3319 38.4006 11.851 1.008 0.12909
2024 107 1 12.6314 40.0834 13.0027 1.008 0.15086
2025 107 1 11.6182 38.6442 15.5201 1.008 0.07222
2026 107 1 13.1601 39.4938 15.3891 1.008 0.07222
2027 107 1 12.7225 41.0127 17.0936 1.008 0.09202
2028 107 1 11.2983 42.0334 17.0032 1.008 0.09202
2029 107 1 11.2844 39.0326 17.6449 1.008 0.10167
2030 107 1 9.83843 39.9878 17.3784 1.008 0.10167
2031 107 1 10.5324 39.5679 19.8044 1.008 0.08773
2032 107 1 11.8661 40.6885 19.5512 1.008 0.08773
2033 107 1 10.1939 41.2485 19.4017 1.008 0.08773
2034 108 4 20.5495 39.5315 21.5949 15.999 -0.35515
2035 108 2 20.272 40.2532 22.7834 12.011 0.03297
2036 108 2 20.4739 38.125 21.7671 12.011 0.01762
2037 108 2 21.6334 37.621 22.6429 12.011 -0.23743
2038 108 2 21.7173 36.0964 22.7238 12.011 -0.24423
2039 108 3 20.1766 41.7234 22.4575 12.011 -0.1837
2040 108 3 21.0587 42.6426 22.8671 12.011 -0.23415
2041 108 1 21.9177 42.3766 23.4608 1.008 0.12909
2042 108 1 20.9394 43.6837 22.6097 1.008 0.12909
2043 108 1 19.335 42.0319 21.8584 1.008 0.15086
2044 108 1 21.0646 40.1127 23.5142 1.008 0.07222
2045 108 1 19.3326 39.9268 23.2292 1.008 0.07222
2046 108 1 19.5091 37.8402 22.1904 1.008 0.09202
2047 108 1 20.5378 37.6629 20.7803 1.008 0.09202
2048 108 1 21.5368 37.9882 23.663 1.008 0.10167
2049 108 1 22.5808 37.9976 22.2553 1.008 0.10167
2050 108 1 22.3664 35.8001 23.5511 1.008 0.08773
2051 108 1 20.7391 35.648 22.8954 1.008 0.08773
2052 108 1 22.1336 35.6729 21.8078 1.008 0.08773
2053 109 4 40.7854 36.5129 30.0847 15.999 -0.35515
2054 109 2 40.6748 35.1426 29.7431 12.011 0.03297
2055 109 2 39.6756 37.0047 30.8289 12.011 0.01762
2056 109 2 38.4189 37.0867 29.9467 12.011 -0.23743
2057 109 2 37.2397 37.8251 30.5861 12.011 -0.24423
2058 109 3 41.9431 34.6686 29.0729 12.011 -0.1837
2059 109 3 42.0111 34.2309 27.8095 12.011 -0.23415
2060 109 1 41.1449 34.2051 27.1671 1.008 0.12909
2061 109 1 42.9459 33.8785 27.3988 1.008 0.12909
2062 109 1 42.8401 34.6674 29.6737 1.008 0.15086
2063 109 1 39.8504 34.9967 29.051 1.008 0.07222
2064 109 1 40.5003 34.5344 30.6313 1.008 0.07222
2065 109 1 39.5056 36.396 31.7181 1.008 0.09202
2066 109 1 39.9154 38.0102 31.1782 1.008 0.09202
2067 109 1 38.0764 36.0967 29.6661 1.008 0.10167
2068 109 1 38.6574 37.5977 29.0161 1.008 0.10167
2069 109 1 36.3168 37.5914 30.0491 1.008 0.08773
2070 109 1 37.0926 37.5458 31.6279 1.008 0.08773
2071 109 1 37.3772 38.9084 30.5235 1.008 0.08773
2072 110 4 29.0816 1.9135 32.4773 15.999 -0.35515
2073 110 2 29.0295 2.48508 31.1798 12.011 0.03297
2074 110 2 29.8658 2.65851 33.4011 12.011 0.01762
2075 110 2 31.3405 2.71943 32.976 12.011 -0.23743
2076 110 2 32.2514 3.37018 34.0185 12.011 -0.24423
2077 110 3 27.9906 1.76247 30.3562 12.011 -0.1837
2078 110 3 28.2737 1.07368 29.2448 12.011 -0.23415
2079 110 1 29.2864 0.992749 28.885 1.008 0.12909
2080 110 1 27.5026 0.580472 28.6746 1.008 0.12909
2081 110 1 26.9673 1.81882 30.6909 1.008 0.15086
2082 110 1 29.9914 2.39302 30.6799 1.008 0.07222
2083 110 1 28.7775 3.5418 31.2238 1.008 0.07222
2084 110 1 29.4734 3.66676 33.5235 1.008 0.09202
2085 110 1 29.7898 2.16982 34.3734 1.008 0.09202
2086 110 1 31.4501 3.2939 32.0576 1.008 0.10167
2087 110 1 31.7118 1.7138 32.7809 1.008 0.10167
2088 110 1 33.2151 3.63196 33.5744 1.008 0.08773
2089 110 1 31.8213 4.28306 34.429 1.008 0.08773
2090 110 1 32.456 2.68906 34.8459 1.008 0.08773
2091 111 4 28.0949 15.1217 35.7264 15.999 -0.35515
2092 111 2 27.5371 14.6045 34.531 12.011 0.03297
2093 111 2 29.3812 14.5926 36.0061 12.011 0.01762
2094 111 2 29.2779 13.1065 36.3827 12.011 -0.23743
2095 111 2 30.6005 12.5141 36.8592 12.011 -0.24423
2096 111 3 26.2751 15.3633 34.2077 12.011 -0.1837
2097 111 3 25.0485 14.8291 34.2353 12.011 -0.23415
2098 111 1 24.8862 13.799 34.5085 1.008 0.12909
2099 111 1 24.1805 15.417 33.9833 1.008 0.12909
2100 111 1 26.391 16.3991 33.9352 1.008 0.15086
2101 111 1 27.2853 13.5524 34.6418 1.008 0.07222
2102 111 1 28.2367 14.7041 33.7016 1.008 0.07222
2103 111 1 30.0521 14.7343 35.1569 1.008 0.09202
2104 111 1 29.8055 15.1513 36.8421 1.008 0.09202
2105 111 1 28.9612 12.5083 35.53 1.008 0.10167
2106 111 1 28.5302 12.9692 37.1651 1.008 0.10167
2107 111 1 30.5487 11.4243 36.8135 1.008 0.08773
2108 111 1 31.4351 12.8204 36.2294 1.008 0.08773
2109 111 1 30.8221 12.802 37.8892 1.008 0.08773
2110 112 4 31.7589 32.9665 29.4851 15.999 -0.35515
2111 112 2 31.7697 34.2692 30.0414 12.011 0.03297
2112 112 2 30.6619 32.1998 29.9517 12.011 0.01762
2113 112 2 30.8778 31.8159 31.4244 12.011 -0.23743
2114 112 2 29.858 30.805 31.9477 12.011 -0.24423
2115 112 3 32.7921 35.1138 29.33 12.011 -0.1837
2116 112 3 33.9285 35.5499 29.8854 12.011 -0.23415
2117 112 1 34.2018 35.3003 30.8987 1.008 0.12909
2118 112 1 34.6092 36.1722 29.327 1.008 0.12909
2119 112 1 32.5634 35.3794 28.3102 1.008 0.15086
2120 112 1 32.0248 34.237 31.0979 1.008 0.07222
2121 112 1 30.795 34.7451 29.9347 1.008 0.07222
2122 112 1 29.7268 32.745 29.8243 1.008 0.09202
2123 112 1 30.5825 31.3049 29.3354 1.008 0.09202
2124 112 1 30.8115 32.6958 32.0623 1.008 0.10167
2125 112 1 31.8759 31.398 31.5609 1.008 0.10167
2126 112 1 29.8808 30.7754 33.0399 1.008 0.08773
2127 112 1 28.8437 31.0615 31.6427 1.008 0.08773
2128 112 1 30.0746 29.7956 31.5931 1.008 0.08773
2129 113 4 9.78551 23.0385 29.4346 15.999 -0.35515
2130 113 2 10.4358 22.7267 30.647 12.011 0.03297
2131 113 2 9.22261 24.3446 29.4991 12.011 0.01762
2132 113 2 8.05923 24.3982 30.5078 12.011 -0.23743
2133 113 2 7.23625 25.6842 30.4199 12.011 -0.24423
2134 113 3 11.3567 21.5347 30.5995 12.011 -0.1837
2135 113 3 11.178 20.4415 31.3533 12.011 -0.23415
2136 113 1 10.3073 20.3366 31.9902 1.008 0.12909
2137 113 1 11.9098 19.6445 31.3752 1.008 0.12909
2138 113 1 12.2467 21.6266 29.9985 1.008 0.15086
2139 113 1 9.69311 22.5458 31.4186 1.008 0.07222
2140 113 1 11.0439 23.574 30.9449 1.008 0.07222
2141 113 1 9.98571 25.0756 29.7707 1.008 0.09202
2142 113 1 8.87458 24.6236 28.5037 1.008 0.09202
2143 113 1 8.43213 24.3208 31.5305 1.008 0.10167
2144 113 1 7.39478 23.5485 30.3454 1.008 0.10167
2145 113 1 6.54735 25.741 31.2657 1.008 0.08773
2146 113 1 7.87474 26.568 30.4462 1.008 0.08773
2147 113 1 6.64291 25.7084 29.5032 1.008 0.08773
2148 114 4 24.915 39.0537 15.3796 15.999 -0.35515
2149 114 2 25.2171 38.1974 14.3007 12.011 0.03297
2150 114 2 23.6063 39.5874 15.2986 12.011 0.01762
2151 114 2 23.4872 40.549 14.104 12.011 -0.23743
2152 114 2 22.169 41.3239 14.0989 12.011 -0.24423
2153 114 3 26.5087 37.4587 14.5581 12.011 -0.1837
2154 114 3 27.5776 37.5434 13.7568 12.011 -0.23415
2155 114 1 27.5537 38.1809 12.8895 1.008 0.12909
2156 114 1 28.4736 36.9767 13.9412 1.008 0.12909
2157 114 1 26.5434 36.8027 15.4164 1.008 0.15086
2158 114 1 25.3386 38.7722 13.3881 1.008 0.07222
2159 114 1 24.4227 37.469 14.1496 1.008 0.07222
2160 114 1 22.8677 38.7854 15.2312 1.008 0.09202
2161 114 1 23.4035 40.121 16.2287 1.008 0.09202
2162 114 1 23.5465 39.9938 13.1674 1.008 0.10167
2163 114 1 24.3207 41.254 14.1185 1.008 0.10167
2164 114 1 22.0006 41.7716 13.1166 1.008 0.08773
2165 114 1 21.3254 40.6663 14.3153 1.008 0.08773
2166 114 1 22.183 42.1256 14.8395 1.008 0.08773
2167 115 4 36.1659 18.3311 1.44843 15.999 -0.35515
2168 115 2 36.0343 18.849 2.76104 12.011 0.03297
2169 115 2 37.2515 17.4259 1.32538 12.011 0.01762
2170 115 2 38.5931 18.1751 1.39821 12.011 -0.23743
2171 115 2 39.8002 17.2916 1.07934 12.011 -0.24423
2172 115 3 34.7439 19.6241 2.85602 12.011 -0.1837
2173 115 3 34.6804 20.9535 2.98194 12.011 -0.23415
2174 115 1 35.5771 21.5474 3.00899 1.008 0.12909
2175 115 1 33.7341 21.4662 3.05826 1.008 0.12909
2176 115 1 33.8301 19.0537 2.8229 1.008 0.15086
2177 115 1 36.8612 19.5157 2.99542 1.008 0.07222
2178 115 1 36.0228 18.0484 3.50079 1.008 0.07222
2179 115 1 37.193 16.651 2.09158 1.008 0.09202
2180 115 1 37.1643 16.9246 0.360444 1.008 0.09202
2181 115 1 38.7492 18.5828 2.39571 1.008 0.10167
2182 115 1 38.5884 19.0175 0.70577 1.008 0.10167
2183 115 1 40.7206 17.7787 1.40962 1.008 0.08773
2184 115 1 39.7411 16.3291 1.58716 1.008 0.08773
2185 115 1 39.8894 17.1099 0.00689216 1.008 0.08773
2186 116 4 36.1406 34.4162 33.099 15.999 -0.35515
2187 116 2 37.1637 35.073 33.8261 12.011 0.03297
2188 116 2 36.6348 33.3507 32.3069 12.011 0.01762
2189 116 2 37.3537 33.9106 31.0721 12.011 -0.23743
2190 116 2 37.7686 32.8426 30.063 12.011 -0.24423
2191 116 3 36.5315 36.0143 34.8211 12.011 -0.1837
2192 116 3 36.5713 37.3496 34.738 12.011 -0.23415
2193 116 1 37.066 37.8574 33.9258 1.008 0.12909
2194 116 1 36.0974 37.9615 35.4899 1.008 0.12909
2195 116 1 36.011 35.5572 35.6478 1.008 0.15086
2196 116 1 37.8162 35.6351 33.1615 1.008 0.07222
2197 116 1 37.7692 34.3503 34.3725 1.008 0.07222
2198 116 1 37.2969 32.7103 32.8926 1.008 0.09202
2199 116 1 35.7859 32.7429 31.9919 1.008 0.09202
2200 116 1 38.261 34.4276 31.3768 1.008 0.10167
2201 116 1 36.7056 34.6277 30.5681 1.008 0.10167
2202 116 1 38.4786 33.2432 29.3369 1.008 0.08773
2203 116 1 38.2647 32.0251 30.5773 1.008 0.08773
2204 116 1 36.9149 32.455 29.5021 1.008 0.08773
2205 117 4 27.8817 9.46297 26.6344 15.999 -0.35515
2206 117 2 27.3845 9.54523 27.9575 12.011 0.03297
2207 117 2 28.2876 10.7186 26.1149 12.011 0.01762
2208 117 2 27.0859 11.6529 25.9154 12.011 -0.23743
2209 117 2 27.4539 12.9331 25.1644 12.011 -0.24423
2210 117 3 27.1657 8.15038 28.4762 12.011 -0.1837
2211 117 3 25.9812 7.7002 28.8972 12.011 -0.23415
2212 117 1 25.1166 8.34109 28.8741 1.008 0.12909
2213 117 1 25.8552 6.6972 29.2741 1.008 0.12909
2214 117 1 28.023 7.50166 28.5103 1.008 0.15086
2215 117 1 26.4375 10.0777 27.9895 1.008 0.07222
2216 117 1 28.0836 10.0508 28.6176 1.008 0.07222
2217 117 1 29.0338 11.1886 26.7563 1.008 0.09202
2218 117 1 28.7631 10.537 25.1506 1.008 0.09202
2219 117 1 26.6525 11.9444 26.8709 1.008 0.10167
2220 117 1 26.3057 11.1359 25.3584 1.008 0.10167
2221 117 1 26.6961 13.7062 25.3158 1.008 0.08773
2222 117 1 28.4056 13.3366 25.5065 1.008 0.08773
2223 117 1 27.5311 12.7505 24.0912 1.008 0.08773
2224 118 4 8.85888 20.6198 8.56046 15.999 -0.35515
2225 118 2 7.46017 20.643 8.78004 12.011 0.03297
2226 118 2 9.52505 21.693 9.20475 12.011 0.01762
2227 118 2 9.21094 23.0252 8.50409 12.011 -0.23743
2228 118 2 10.0309 24.1941 9.0513 12.011 -0.24423
2229 118 3 6.86365 19.3497 8.29018 12.011 -0.1837
2230 118 3 6.06085 19.2541 7.22664 12.011 -0.23415
2231 118 1 5.80141 20.1199 6.63949 1.008 0.12909
2232 118 1 5.6504 18.3017 6.92835 1.008 0.12909
2233 118 1 7.10199 18.4596 8.84929 1.008 0.15086
2234 118 1 6.99978 21.4675 8.24036 1.008 0.07222
2235 118 1 7.22978 20.7561 9.83908 1.008 0.07222
2236 118 1 9.25293 21.7344 10.2608 1.008 0.09202
2237 118 1 10.5983 21.5012 9.16047 1.008 0.09202
2238 118 1 8.16024 23.2868 8.61772 1.008 0.10167
2239 118 1 9.40446 22.9342 7.43424 1.008 0.10167
2240 118 1 9.56539 25.1457 8.78473 1.008 0.08773
2241 118 1 10.1037 24.1659 10.1377 1.008 0.08773
2242 118 1 11.0415 24.1919 8.63813 1.008 0.08773
2243 119 4 15.0294 14.5577 13.5909 15.999 -0.35515
2244 119 2 15.5926 15.4832 14.5094 12.011 0.03297
2245 119 2 15.8453 13.4252 13.3359 12.011 0.01762
2246 119 2 17.0333 13.7755 12.4319 12.011 -0.23743
2247 119 2 17.8913 12.5721 12.0249 12.011 -0.24423
2248 119 3 14.5403 16.4882 14.9314 12.011 -0.1837
2249 119 3 14.4559 17.7446 14.477 12.011 -0.23415
2250 119 1 15.1412 18.1168 13.7338 1.008 0.12909
2251 119 1 13.6839 18.4136 14.8241 1.008 0.12909
2252 119 1 13.8092 16.1481 15.6457 1.008 0.15086
2253 119 1 16.438 16.004 14.064 1.008 0.07222
2254 119 1 15.9444 14.9767 15.4066 1.008 0.07222
2255 119 1 16.1674 12.9612 14.2715 1.008 0.09202
2256 119 1 15.2249 12.7076 12.7979 1.008 0.09202
2257 119 1 17.6751 14.5085 12.9173 1.008 0.10167
2258 119 1 16.6519 14.2258 11.5187 1.008 0.10167
2259 119 1 18.8628 12.907 11.6509 1.008 0.08773
2260 119 1 18.0736 11.8985 12.862 1.008 0.08773
2261 119 1 17.4139 12.0031 11.2236 1.008 0.08773
2262 120 4 14.6174 32.3537 18.1198 15.999 -0.35515
2263 120 2 15.5983 33.375 18.176 12.011 0.03297
2264 120 2 13.7371 32.4839 17.0139 12.011 0.01762
2265 120 2 12.7931 33.6805 17.2197 12.011 -0.23743
2266 120 2 11.6865 33.7785 16.1678 12.011 -0.24423
2267 120 3 16.6067 33.0293 19.2436 12.011 -0.1837
2268 120 3 16.7493 33.6979 20.3941 12.011 -0.23415
2269 120 1 16.1249 34.5425 20.6369 1.008 0.12909
2270 120 1 17.4987 33.4081 21.1133 1.008 0.12909
2271 120 1 17.2512 32.1882 19.0422 1.008 0.15086
2272 120 1 15.143 34.3322 18.419 1.008 0.07222
2273 120 1 16.1131 33.4736 17.2205 1.008 0.07222
2274 120 1 14.2962 32.5783 16.0812 1.008 0.09202
2275 120 1 13.1515 31.566 16.9392 1.008 0.09202
2276 120 1 13.3485 34.6165 17.1898 1.008 0.10167
2277 120 1 12.3274 33.6177 18.2038 1.008 0.10167
2278 120 1 11.2263 34.7693 16.1991 1.008 0.08773
2279 120 1 12.0714 33.6308 15.159 1.008 0.08773
2280 120 1 10.898 33.0445 16.3449 1.008 0.08773
2281 121 4 27.284 6.263 7.17926 15.999 -0.35515
2282 121 2 26.8237 5.65248 8.37263 12.011 0.03297
2283 121 2 28.386 7.12806 7.4036 12.011 0.01762
2284 121 2 27.9194 8.41233 8.10479 12.011 -0.23743
2285 121 2 28.9994 9.49274 8.15965 12.011 -0.24423
2286 121 3 25.8126 4.58319 8.03991 12.011 -0.1837
2287 121 3 24.5122 4.64755 8.35163 12.011 -0.23415
2288 121 1 24.0885 5.49903 8.85871 1.008 0.12909
2289 121 1 23.8403 3.83855 8.11091 1.008 0.12909
2290 121 1 26.1872 3.70778 7.53369 1.008 0.15086
2291 121 1 26.3585 6.3874 9.02485 1.008 0.07222
2292 121 1 27.6499 5.19107 8.91299 1.008 0.07222
2293 121 1 29.1651 6.62543 7.97875 1.008 0.09202
2294 121 1 28.827 7.3835 6.44023 1.008 0.09202
2295 121 1 27.6121 8.1997 9.12747 1.008 0.10167
2296 121 1 27.0502 8.82037 7.58816 1.008 0.10167
2297 121 1 28.7275 10.2624 8.88592 1.008 0.08773
2298 121 1 29.9628 9.08203 8.46188 1.008 0.08773
2299 121 1 29.1215 9.97942 7.19009 1.008 0.08773
2300 122 4 13.6078 10.8991 15.9699 15.999 -0.35515
2301 122 2 14.1115 10.3129 14.7835 12.011 0.03297
2302 122 2 12.4626 11.7061 15.7462 12.011 0.01762
2303 122 2 12.8615 13.0112 15.0501 12.011 -0.23743
2304 122 2 11.7539 14.0643 14.9745 12.011 -0.24423
2305 122 3 15.1393 9.27213 15.1553 12.011 -0.1837
2306 122 3 16.4584 9.40457 14.9681 12.011 -0.23415
2307 122 1 16.8841 10.2961 14.5352 1.008 0.12909
2308 122 1 17.1338 8.61007 15.2469 1.008 0.12909
2309 122 1 14.7616 8.36367 15.5956 1.008 0.15086
2310 122 1 14.5777 11.0682 14.1595 1.008 0.07222
2311 122 1 13.3178 9.84007 14.2034 1.008 0.07222
2312 122 1 11.7061 11.1671 15.1717 1.008 0.09202
2313 122 1 12.0295 11.941 16.7167 1.008 0.09202
2314 122 1 13.1789 12.8148 14.0278 1.008 0.10167
2315 122 1 13.7109 13.4512 15.5717 1.008 0.10167
2316 122 1 12.0491 14.8497 14.2715 1.008 0.08773
2317 122 1 10.8169 13.6395 14.6143 1.008 0.08773
2318 122 1 11.5784 14.5375 15.9421 1.008 0.08773
2319 123 4 48.0567 4.90582 47.2528 15.999 -0.35515
2320 123 2 48.277 4.3862 48.5536 12.011 0.03297
2321 123 2 47.6105 3.92028 46.3344 12.011 0.01762
2322 123 2 48.7433 2.9312 46.0088 12.011 -0.23743
2323 123 2 48.4006 1.94854 44.8879 12.011 -0.24423
2324 123 3 48.5477 5.52587 49.504 12.011 -0.1837
2325 123 3 49.7304 5.75583 50.0866 12.011 -0.23415
2326 123 1 50.5851 5.12777 49.8959 1.008 0.12909
2327 123 1 49.863 6.58118 50.7685 1.008 0.12909
2328 123 1 47.721 6.18267 49.7208 1.008 0.15086
2329 123 1 49.1346 3.71773 48.5634 1.008 0.07222
2330 123 1 47.4076 3.83072 48.9048 1.008 0.07222
2331 123 1 46.7379 3.40102 46.7304 1.008 0.09202
2332 123 1 47.2922 4.42711 45.4222 1.008 0.09202
2333 123 1 48.9964 2.33559 46.8842 1.008 0.10167
2334 123 1 49.642 3.47914 45.7232 1.008 0.10167
2335 123 1 49.1321 1.13707 44.867 1.008 0.08773
2336 123 1 47.4212 1.49404 45.0329 1.008 0.08773
2337 123 1 48.4192 2.43609 43.9114 1.008 0.08773
2338 124 4 8.16396 14.3877 7.58852 15.999 -0.35515
2339 124 2 7.90785 14.1036 6.22599 12.011 0.03297
2340 124 2 9.18158 15.3624 7.75352 12.011 0.01762
2341 124 2 10.5492 14.83 7.29132 12.011 -0.23743
2342 124 2 11.6984 15.7708 7.64582 12.011 -0.24423
2343 124 3 6.70623 13.2011 6.12299 12.011 -0.1837
2344 124 3 6.76501 11.9234 5.73162 12.011 -0.23415
2345 124 1 7.69809 11.4548 5.46204 1.008 0.12909
2346 124 1 5.87228 11.3245 5.66979 1.008 0.12909
2347 124 1 5.75274 13.6313 6.37848 1.008 0.15086
2348 124 1 8.75344 13.58 5.79271 1.008 0.07222
2349 124 1 7.73088 15.015 5.65381 1.008 0.07222
2350 124 1 8.92747 16.2783 7.21656 1.008 0.09202
2351 124 1 9.23022 15.6151 8.81359 1.008 0.09202
2352 124 1 10.5779 14.7012 6.21052 1.008 0.10167
2353 124 1 10.7493 13.8533 7.73517 1.008 0.10167
2354 124 1 12.5674 15.5736 7.01446 1.008 0.08773
2355 124 1 11.4317 16.8174 7.50596 1.008 0.08773
2356 124 1 12.0141 15.6257 8.67703 1.008 0.08773
2357 125 4 29.3637 42.9525 2.9918 15.999 -0.35515
2358 125 2 30.1841 43.5734 3.96663 12.011 0.03297
2359 125 2 27.9887 42.9544 3.35695 12.011 0.01762
2360 125 2 27.7511 42.0482 4.57439 12.011 -0.23743
2361 125 2 26.2811 41.7873 4.91594 12.011 -0.24423
2362 125 3 31.5933 43.7488 3.45617 12.011 -0.1837
2363 125 3 32.6672 43.1505 3.98643 12.011 -0.23415
2364 125 1 32.5836 42.4733 4.8207 1.008 0.12909
2365 125 1 33.6554 43.333 3.59473 1.008 0.12909
2366 125 1 31.7286 44.4231 2.62569 1.008 0.15086
2367 125 1 30.2277 42.9568 4.86014 1.008 0.07222
2368 125 1 29.7865 44.5521 4.23608 1.008 0.07222
2369 125 1 27.6457 43.9705 3.55772 1.008 0.09202
2370 125 1 27.4149 42.5787 2.50888 1.008 0.09202
2371 125 1 28.209 42.4798 5.46335 1.008 0.10167
2372 125 1 28.225 41.0859 4.3885 1.008 0.10167
2373 125 1 26.1962 41.359 5.91873 1.008 0.08773
2374 125 1 25.6913 42.7032 4.90857 1.008 0.08773
2375 125 1 25.8305 41.0736 4.22413 1.008 0.08773
2376 126 4 38.0112 32.7163 42.1358 15.999 -0.35515
2377 126 2 37.0279 33.2082 41.2405 12.011 0.03297
2378 126 2 37.9479 33.2726 43.4397 12.011 0.01762
2379 126 2 38.43 34.7348 43.4428 12.011 -0.23743
2380 126 2 38.5452 35.3398 44.8463 12.011 -0.24423
2381 126 3 37.0546 32.4363 39.9389 12.011 -0.1837
2382 126 3 37.5037 32.9298 38.7773 12.011 -0.23415
2383 126 1 37.8927 33.9323 38.7064 1.008 0.12909
2384 126 1 37.4979 32.3305 37.879 1.008 0.12909
2385 126 1 36.6929 31.4217 39.9706 1.008 0.15086
2386 126 1 37.1877 34.2656 41.0331 1.008 0.07222
2387 126 1 36.0429 33.0769 41.6785 1.008 0.07222
2388 126 1 36.9416 33.1852 43.8548 1.008 0.09202
2389 126 1 38.6079 32.6779 44.0732 1.008 0.09202
2390 126 1 37.7539 35.3645 42.8655 1.008 0.10167
2391 126 1 39.4114 34.8048 42.9777 1.008 0.10167
2392 126 1 38.5611 36.4318 44.786 1.008 0.08773
2393 126 1 37.7043 35.0585 45.4819 1.008 0.08773
2394 126 1 39.4701 35.0315 45.3394 1.008 0.08773
2395 127 4 7.6984 42.3723 21.1148 15.999 -0.35515
2396 127 2 6.38438 42.8637 20.9019 12.011 0.03297
2397 127 2 8.35596 43.0136 22.1979 12.011 0.01762
2398 127 2 8.7041 44.4682 21.834 12.011 -0.23743
2399 127 2 9.59463 45.1862 22.852 12.011 -0.24423
2400 127 3 5.67866 42.0094 19.8775 12.011 -0.1837
2401 127 3 5.33682 42.4292 18.6534 12.011 -0.23415
2402 127 1 5.56817 43.4257 18.3139 1.008 0.12909
2403 127 1 4.8187 41.78 17.9652 1.008 0.12909
2404 127 1 5.43174 41.0027 20.174 1.008 0.15086
2405 127 1 6.41026 43.8869 20.5357 1.008 0.07222
2406 127 1 5.80955 42.8477 21.8276 1.008 0.07222
2407 127 1 7.73682 42.9688 23.0948 1.008 0.09202
2408 127 1 9.27187 42.4594 22.4088 1.008 0.09202
2409 127 1 7.79797 45.063 21.7307 1.008 0.10167
2410 127 1 9.21242 44.4858 20.8703 1.008 0.10167
2411 127 1 9.58129 46.2626 22.6628 1.008 0.08773
2412 127 1 9.25257 45.0425 23.8743 1.008 0.08773
2413 127 1 10.6317 44.8529 22.7835 1.008 0.08773
2414 128 4 25.4466 19.1808 25.133 15.999 -0.35515
2415 128 2 24.9813 19.9512 26.2219 12.011 0.03297
2416 128 2 25.3419 19.888 23.901 12.011 0.01762
2417 128 2 23.8711 20.0403 23.48 12.011 -0.23743
2418 128 2 23.6462 20.616 22.0784 12.011 -0.24423
2419 128 3 25.2513 19.2376 27.5212 12.011 -0.1837
2420 128 3 24.2888 18.8504 28.3643 12.011 -0.23415
2421 128 1 23.2456 18.997 28.1321 1.008 0.12909
2422 128 1 24.5214 18.4116 29.3203 1.008 0.12909
2423 128 1 26.2803 19.0912 27.7961 1.008 0.15086
2424 128 1 23.907 20.1055 26.1427 1.008 0.07222
2425 128 1 25.4692 20.9272 26.24 1.008 0.07222
2426 128 1 25.8282 20.8644 23.9631 1.008 0.09202
2427 128 1 25.8612 19.3118 23.1348 1.008 0.09202
2428 128 1 23.3302 20.6745 24.1759 1.008 0.10167
2429 128 1 23.3969 19.0622 23.4955 1.008 0.10167
2430 128 1 22.5828 20.7519 21.8797 1.008 0.08773
2431 128 1 24.1213 21.5845 21.9447 1.008 0.08773
2432 128 1 23.9979 19.9315 21.3062 1.008 0.08773
2433 129 4 22.2703 23.9359 27.5649 15.999 -0.35515
2434 129 2 21.861 23.151 26.4634 12.011 0.03297
2435 129 2 23.6277 23.7061 27.9103 12.011 0.01762
2436 129 2 23.7766 22.3722 28.6553 12.011 -0.23743
2437 129 2 25.1566 22.218 29.2938 12.011 -0.24423
2438 129 3 20.4846 23.6016 26.038 12.011 -0.1837
2439 129 3 19.3715 22.8706 26.1687 12.011 -0.23415
2440 129 1 19.3928 21.8857 26.6031 1.008 0.12909
2441 129 1 18.4231 23.2368 25.8107 1.008 0.12909
2442 129 1 20.4179 24.5739 25.5751 1.008 0.15086
2443 129 1 21.8373 22.0963 26.7305 1.008 0.07222
2444 129 1 22.5466 23.2792 25.6249 1.008 0.07222
2445 129 1 24.2707 23.7302 27.0275 1.008 0.09202
2446 129 1 23.9712 24.5042 28.5688 1.008 0.09202
2447 129 1 23.6149 21.5431 27.9744 1.008 0.10167
2448 129 1 23.0244 22.2919 29.4409 1.008 0.10167
2449 129 1 25.3051 21.1973 29.6541 1.008 0.08773
2450 129 1 25.955 22.4385 28.5868 1.008 0.08773
2451 129 1 25.2646 22.8926 30.1412 1.008 0.08773
2452 130 4 47.1539 34.4562 25.3553 15.999 -0.35515
2453 130 2 46.0545 34.0461 26.1464 12.011 0.03297
2454 130 2 47.7413 35.6458 25.8455 12.011 0.01762
2455 130 2 46.7863 36.8302 25.6457 12.011 -0.23743
2456 130 2 47.4641 38.1475 25.9791 12.011 -0.24423
2457 130 3 45.5998 32.7014 25.6484 12.011 -0.1837
2458 130 3 44.4285 32.4805 25.0431 12.011 -0.23415
2459 130 1 43.7282 33.2805 24.869 1.008 0.12909
2460 130 1 44.1565 31.4934 24.7055 1.008 0.12909
2461 130 1 46.2818 31.8833 25.7903 1.008 0.15086
2462 130 1 45.2225 34.7394 26.0556 1.008 0.07222
2463 130 1 46.3312 33.9772 27.199 1.008 0.07222
2464 130 1 48.0134 35.5431 26.8986 1.008 0.09202
2465 130 1 48.6632 35.8273 25.2896 1.008 0.09202
2466 130 1 45.913 36.754 26.2926 1.008 0.10167
2467 130 1 46.4274 36.8671 24.6155 1.008 0.10167
2468 130 1 46.7311 38.9562 26.0493 1.008 0.08773
2469 130 1 47.983 38.0713 26.9315 1.008 0.08773
2470 130 1 48.1949 38.4127 25.2191 1.008 0.08773
2471 131 4 2.60356 21.1879 47.6203 15.999 -0.35515
2472 131 2 3.53001 21.5297 46.6022 12.011 0.03297
2473 131 2 1.58039 22.1488 47.8263 12.011 0.01762
2474 131 2 2.1541 23.4736 48.3612 12.011 -0.23743
2475 131 2 1.0694 24.4603 48.7827 12.011 -0.24423
2476 131 3 4.49862 20.385 46.4255 12.011 -0.1837
2477 131 3 5.81084 20.4573 46.6804 12.011 -0.23415
2478 131 1 6.27285 21.3605 47.0427 1.008 0.12909
2479 131 1 6.4525 19.6037 46.5282 1.008 0.12909
2480 131 1 4.08854 19.454 46.0674 1.008 0.15086
2481 131 1 4.09859 22.4148 46.877 1.008 0.07222
2482 131 1 3.02077 21.7244 45.6583 1.008 0.07222
2483 131 1 1.01202 22.3093 46.9086 1.008 0.09202
2484 131 1 0.886124 21.7348 48.5599 1.008 0.09202
2485 131 1 2.75376 23.9653 47.5969 1.008 0.10167
2486 131 1 2.80262 23.2912 49.2156 1.008 0.10167
2487 131 1 1.48357 25.4646 48.9041 1.008 0.08773
2488 131 1 0.308536 24.5096 48.0108 1.008 0.08773
2489 131 1 0.596741 24.1717 49.7247 1.008 0.08773
2490 132 4 38.5565 27.583 6.78713 15.999 -0.35515
2491 132 2 38.2048 28.0748 5.50656 12.011 0.03297
2492 132 2 39.846 26.9948 6.80391 12.011 0.01762
2493 132 2 39.8516 25.6795 6.0106 12.011 -0.23743
2494 132 2 41.163 24.9116 6.16175 12.011 -0.24423
2495 132 3 36.9305 28.8718 5.62426 12.011 -0.1837
2496 132 3 35.7842 28.5556 5.0119 12.011 -0.23415
2497 132 1 35.7015 27.6744 4.39662 1.008 0.12909
2498 132 1 34.9061 29.1722 5.12352 1.008 0.12909
2499 132 1 36.9701 29.7556 6.23994 1.008 0.15086
2500 132 1 38.0431 27.2603 4.80429 1.008 0.07222
2501 132 1 38.9969 28.7101 5.11072 1.008 0.07222
2502 132 1 40.5926 27.6862 6.40956 1.008 0.09202
2503 132 1 40.1146 26.7948 7.84178 1.008 0.09202
2504 132 1 39.7146 25.8697 4.9471 1.008 0.10167
2505 132 1 39.0268 25.0407 6.32938 1.008 0.10167
2506 132 1 41.2866 24.2054 5.33913 1.008 0.08773
2507 132 1 42.0258 25.5758 6.13959 1.008 0.08773
2508 132 1 41.1897 24.3417 7.09187 1.008 0.08773
2509 133 4 9.35879 3.04192 41.5343 15.999 -0.35515
2510 133 2 10.0331 1.82172 41.7757 12.011 0.03297
2511 133 2 8.08382 3.13792 42.1567 12.011 0.01762
2512 133 2 7.10031 2.15799 41.4895 12.011 -0.23743
2513 133 2 5.64125 2.33086 41.8713 12.011 -0.24423
2514 133 3 11.4673 1.99264 41.3404 12.011 -0.1837
2515 133 3 12.0543 1.34868 40.3221 12.011 -0.23415
2516 133 1 11.5272 0.63351 39.7078 1.008 0.12909
2517 133 1 13.0924 1.53407 40.0834 1.008 0.12909
2518 133 1 12.0512 2.69932 41.9088 1.008 0.15086
2519 133 1 9.57899 0.999869 41.2275 1.008 0.07222
2520 133 1 10.0178 1.56869 42.8339 1.008 0.07222
2521 133 1 8.15784 2.94776 43.2266 1.008 0.09202
2522 133 1 7.72329 4.16144 42.0353 1.008 0.09202
2523 133 1 7.41989 1.16442 41.7835 1.008 0.10167
2524 133 1 7.19702 2.22573 40.4137 1.008 0.10167
2525 133 1 5.04071 1.54643 41.3964 1.008 0.08773
2526 133 1 5.47 2.26975 42.9394 1.008 0.08773
2527 133 1 5.25389 3.28976 41.529 1.008 0.08773
2528 134 4 41.1701 40.6365 29.9056 15.999 -0.35515
2529 134 2 42.4858 40.7487 30.4114 12.011 0.03297
2530 134 2 41.0762 39.6016 28.9398 12.011 0.01762
2531 134 2 41.8025 39.9434 27.6317 12.011 -0.23743
2532 134 2 41.5005 38.9145 26.5409 12.011 -0.24423
2533 134 3 42.5024 41.5904 31.6617 12.011 -0.1837
2534 134 3 43.1166 42.7749 31.7428 12.011 -0.23415
2535 134 1 43.6232 43.1918 30.8894 1.008 0.12909
2536 134 1 43.1357 43.3466 32.6574 1.008 0.12909
2537 134 1 42.0107 41.191 32.5336 1.008 0.15086
2538 134 1 43.1255 41.2084 29.6661 1.008 0.07222
2539 134 1 42.9047 39.7745 30.6447 1.008 0.07222
2540 134 1 41.4793 38.6739 29.3409 1.008 0.09202
2541 134 1 40.0226 39.4272 28.7302 1.008 0.09202
2542 134 1 42.8803 39.9594 27.785 1.008 0.10167
2543 134 1 41.5084 40.9314 27.2755 1.008 0.10167
2544 134 1 42.2139 38.9952 25.7162 1.008 0.08773
2545 134 1 41.5568 37.897 26.9327 1.008 0.08773
2546 134 1 40.4995 39.0698 26.1354 1.008 0.08773
2547 135 4 39.3955 13.8604 18.0658 15.999 -0.35515
2548 135 2 38.8871 14.363 16.8387 12.011 0.03297
2549 135 2 38.4212 13.1286 18.7982 12.011 0.01762
2550 135 2 37.3116 14.0664 19.3083 12.011 -0.23743
2551 135 2 36.2862 13.3874 20.2156 12.011 -0.24423
2552 135 3 39.9944 14.9517 16.0057 12.011 -0.1837
2553 135 3 40.1615 16.2616 15.7875 12.011 -0.23415
2554 135 1 39.5024 16.9927 16.2233 1.008 0.12909
2555 135 1 40.9726 16.6292 15.1777 1.008 0.12909
2556 135 1 40.6788 14.2505 15.5603 1.008 0.15086
2557 135 1 38.1499 15.1434 17.0079 1.008 0.07222
2558 135 1 38.423 13.5679 16.2597 1.008 0.07222
2559 135 1 38.0089 12.3254 18.1868 1.008 0.09202
2560 135 1 38.9163 12.6526 19.6461 1.008 0.09202
2561 135 1 36.7491 14.49 18.4777 1.008 0.10167
2562 135 1 37.7587 14.9016 19.849 1.008 0.10167
2563 135 1 35.4068 14.0287 20.3161 1.008 0.08773
2564 135 1 35.9518 12.4353 19.8046 1.008 0.08773
2565 135 1 36.6885 13.2159 21.2157 1.008 0.08773
2566 136 4 25.5138 1.05147 20.4754 15.999 -0.35515
2567 136 2 25.9427 2.17127 19.7185 12.011 0.03297
2568 136 2 24.0972 0.956666 20.5482 12.011 0.01762
2569 136 2 23.5148 2.08396 21.4188 12.011 -0.23743
2570 136 2 22.0186 1.94094 21.7013 12.011 -0.24423
2571 136 3 27.4346 2.10719 19.5065 12.011 -0.1837
2572 136 3 28.3057 2.97882 20.028 12.011 -0.23415
2573 136 1 27.9832 3.79103 20.6585 1.008 0.12909
2574 136 1 29.3632 2.89401 19.8309 1.008 0.12909
2575 136 1 27.8033 1.31022 18.8816 1.008 0.15086
2576 136 1 25.7163 3.09166 20.248 1.008 0.07222
2577 136 1 25.4461 2.2016 18.7485 1.008 0.07222
2578 136 1 23.6581 0.976436 19.5492 1.008 0.09202
2579 136 1 23.8449 51.9764 20.9867 1.008 0.09202
2580 136 1 23.6405 3.0462 20.928 1.008 0.10167
2581 136 1 24.0438 2.13881 22.37 1.008 0.10167
2582 136 1 21.6186 2.89578 22.0526 1.008 0.08773
2583 136 1 21.4621 1.67023 20.8043 1.008 0.08773
2584 136 1 21.8224 1.19488 22.4729 1.008 0.08773
2585 137 4 50.49 9.37698 29.2337 15.999 -0.35515
2586 137 2 49.454 9.50389 28.2765 12.011 0.03297
2587 137 2 50.5211 10.4622 30.1424 12.011 0.01762
2588 137 2 51.1031 11.7208 29.4778 12.011 -0.23743
2589 137 2 51.2178 12.9035 30.4452 12.011 -0.24423
2590 137 3 49.3607 8.19972 27.5283 12.011 -0.1837
2591 137 3 49.7114 8.03304 26.2486 12.011 -0.23415
2592 137 1 50.1022 8.84491 25.66 1.008 0.12909
2593 137 1 49.6123 7.07382 25.7669 1.008 0.12909
2594 137 1 48.9802 7.35456 28.0815 1.008 0.15086
2595 137 1 49.6616 10.3083 27.5744 1.008 0.07222
2596 137 1 48.4955 9.70957 28.7538 1.008 0.07222
2597 137 1 49.5243 10.6458 30.5391 1.008 0.09202
2598 137 1 51.1426 10.1771 30.9909 1.008 0.09202
2599 137 1 50.4731 12.0354 28.6498 1.008 0.10167
2600 137 1 0.0984233 11.5051 29.0558 1.008 0.10167
2601 137 1 51.2973 13.8399 29.8832 1.008 0.08773
2602 137 1 50.3385 12.9741 31.0919 1.008 0.08773
2603 137 1 0.118409 12.8095 31.0798 1.008 0.08773
2604 138 4 40.8649 7.71755 21.4679 15.999 -0.35515
2605 138 2 41.872 8.48038 20.8222 12.011 0.03297
2606 138 2 39.5517 8.18228 21.2006 12.011 0.01762
2607 138 2 39.308 9.53075 21.8969 12.011 -0.23743
2608 138 2 37.8606 10.0156 21.8338 12.011 -0.24423
2609 138 3 43.2039 7.78795 20.9814 12.011 -0.1837
2610 138 3 44.2163 8.25431 21.7224 12.011 -0.23415
2611 138 1 44.1345 9.17156 22.2812 1.008 0.12909
2612 138 1 45.1476 7.7141 21.7929 1.008 0.12909
2613 138 1 43.3301 6.8574 20.4528 1.008 0.15086
2614 138 1 41.9443 9.47519 21.2558 1.008 0.07222
2615 138 1 41.6553 8.58548 19.7593 1.008 0.07222
2616 138 1 39.3854 8.2597 20.1248 1.008 0.09202
2617 138 1 38.8486 7.44038 21.5824 1.008 0.09202
2618 138 1 39.9221 10.304 21.439 1.008 0.10167
2619 138 1 39.5886 9.46658 22.9477 1.008 0.10167
2620 138 1 37.813 11.0713 22.1128 1.008 0.08773
2621 138 1 37.4441 9.92108 20.8316 1.008 0.08773
2622 138 1 37.2249 9.46484 22.5304 1.008 0.08773
2623 139 4 29.5808 43.9718 28.1905 15.999 -0.35515
2624 139 2 28.9786 44.1357 29.4616 12.011 0.03297
2625 139 2 30.8729 43.386 28.2365 12.011 0.01762
2626 139 2 31.8748 44.3688 28.8711 12.011 -0.23743
2627 139 2 33.3493 43.9562 28.7823 12.011 -0.24423
2628 139 3 27.5283 44.5023 29.2507 12.011 -0.1837
2629 139 3 26.9871 45.6788 29.5865 12.011 -0.23415
2630 139 1 27.572 46.4624 30.0433 1.008 0.12909
2631 139 1 25.9409 45.8734 29.4057 1.008 0.12909
2632 139 1 26.895 43.7589 28.7958 1.008 0.15086
2633 139 1 29.4737 44.9229 30.0282 1.008 0.07222
2634 139 1 29.0331 43.2172 30.0413 1.008 0.07222
2635 139 1 30.8602 42.4252 28.756 1.008 0.09202
2636 139 1 31.1551 43.1853 27.2023 1.008 0.09202
2637 139 1 31.6475 44.521 29.9243 1.008 0.10167
2638 139 1 31.7713 45.33 28.3724 1.008 0.10167
2639 139 1 33.9621 44.6042 29.4137 1.008 0.08773
2640 139 1 33.5148 42.9329 29.1235 1.008 0.08773
2641 139 1 33.7358 44.0537 27.7666 1.008 0.08773
2642 140 4 33.0418 34.5913 35.8702 15.999 -0.35515
2643 140 2 33.0511 35.2041 34.5917 12.011 0.03297
2644 140 2 33.4886 33.2444 35.8047 12.011 0.01762
2645 140 2 32.4927 32.387 35.0053 12.011 -0.23743
2646 140 2 32.7276 30.8839 35.1427 12.011 -0.24423
2647 140 3 32.9039 36.7 34.7207 12.011 -0.1837
2648 140 3 31.9427 37.4162 34.1265 12.011 -0.23415
2649 140 1 31.1843 36.9456 33.5222 1.008 0.12909
2650 140 1 31.9064 38.4899 34.2284 1.008 0.12909
2651 140 1 33.6503 37.2122 35.3043 1.008 0.15086
2652 140 1 32.2435 34.82 33.972 1.008 0.07222
2653 140 1 33.9903 34.9975 34.0838 1.008 0.07222
2654 140 1 34.4843 33.1918 35.3597 1.008 0.09202
2655 140 1 33.5804 32.8615 36.8207 1.008 0.09202
2656 140 1 32.5631 32.6251 33.9445 1.008 0.10167
2657 140 1 31.4724 32.6063 35.321 1.008 0.10167
2658 140 1 32.1598 30.3433 34.3797 1.008 0.08773
2659 140 1 33.7776 30.6224 35.0129 1.008 0.08773
2660 140 1 32.3994 30.5211 36.1179 1.008 0.08773
2661 141 4 45.8769 42.7223 29.2872 15.999 -0.35515
2662 141 2 45.721 41.6154 28.4209 12.011 0.03297
2663 141 2 45.2646 43.8902 28.7747 12.011 0.01762
2664 141 2 46.006 44.3688 27.5178 12.011 -0.23743
2665 141 2 45.5099 45.7169 27.0159 12.011 -0.24423
2666 141 3 46.2077 40.3983 29.1557 12.011 -0.1837
2667 141 3 47.365 39.7831 28.8959 12.011 -0.23415
2668 141 1 48.0221 40.1491 28.1239 1.008 0.12909
2669 141 1 47.6641 38.9006 29.4387 1.008 0.12909
2670 141 1 45.5684 40.0241 29.936 1.008 0.15086
2671 141 1 46.3116 41.7282 27.5153 1.008 0.07222
2672 141 1 44.6816 41.4797 28.1258 1.008 0.07222
2673 141 1 44.2096 43.7061 28.5597 1.008 0.09202
2674 141 1 45.3086 44.6607 29.5473 1.008 0.09202
2675 141 1 45.8842 43.6689 26.6937 1.008 0.10167
2676 141 1 47.0745 44.4474 27.7231 1.008 0.10167
2677 141 1 45.7795 45.8686 25.9696 1.008 0.08773
2678 141 1 44.4263 45.8031 27.0997 1.008 0.08773
2679 141 1 45.9761 46.5152 27.5867 1.008 0.08773
2680 142 4 38.247 16.9468 46.7287 15.999 -0.35515
2681 142 2 38.9427 17.5826 47.7873 12.011 0.03297
2682 142 2 37.7443 15.669 47.0914 12.011 0.01762
2683 142 2 38.8934 14.6551 47.2248 12.011 -0.23743
2684 142 2 38.419 13.2152 47.4264 12.011 -0.24423
2685 142 3 39.2577 19.0105 47.4141 12.011 -0.1837
2686 142 3 40.4987 19.475 47.23 12.011 -0.23415
2687 142 1 41.3538 18.8274 47.3204 1.008 0.12909
2688 142 1 40.685 20.5098 46.9909 1.008 0.12909
2689 142 1 38.4213 19.6839 47.3126 1.008 0.15086
2690 142 1 39.8773 17.0657 47.9918 1.008 0.07222
2691 142 1 38.3457 17.5826 48.6992 1.008 0.07222
2692 142 1 37.1628 15.7283 48.0132 1.008 0.09202
2693 142 1 37.0595 15.3413 46.3077 1.008 0.09202
2694 142 1 39.5344 14.9056 48.0682 1.008 0.10167
2695 142 1 39.5121 14.6838 46.3288 1.008 0.10167
2696 142 1 39.2422 12.5939 47.7867 1.008 0.08773
2697 142 1 37.6151 13.1531 48.1593 1.008 0.08773
2698 142 1 38.0627 12.7794 46.4913 1.008 0.08773
2699 143 4 31.5854 46.8439 7.31273 15.999 -0.35515
2700 143 2 31.819 45.6219 7.98823 12.011 0.03297
2701 143 2 32.6335 47.7735 7.51346 12.011 0.01762
2702 143 2 32.6175 48.2726 8.96642 12.011 -0.23743
2703 143 2 33.5974 49.4136 9.22767 12.011 -0.24423
2704 143 3 30.802 44.6269 7.50653 12.011 -0.1837
2705 143 3 29.8232 44.1189 8.25973 12.011 -0.23415
2706 143 1 29.7069 44.404 9.29287 1.008 0.12909
2707 143 1 29.125 43.4069 7.84986 1.008 0.12909
2708 143 1 30.8971 44.3225 6.48178 1.008 0.15086
2709 143 1 31.7077 45.7384 9.0624 1.008 0.07222
2710 143 1 32.8171 45.2343 7.7815 1.008 0.07222
2711 143 1 33.5973 47.329 7.25808 1.008 0.09202
2712 143 1 32.4766 48.6093 6.83059 1.008 0.09202
2713 143 1 32.8786 47.4693 9.65281 1.008 0.10167
2714 143 1 31.6143 48.6064 9.23157 1.008 0.10167
2715 143 1 33.7409 49.543 10.3032 1.008 0.08773
2716 143 1 34.573 49.2094 8.78737 1.008 0.08773
2717 143 1 33.2256 50.3568 8.82357 1.008 0.08773
2718 144 4 17.8272 7.12944 32.9035 15.999 -0.35515
2719 144 2 17.6149 6.93926 31.5152 12.011 0.03297
2720 144 2 17.6593 8.49066 33.273 12.011 0.01762
2721 144 2 18.8852 9.31604 32.8481 12.011 -0.23743
2722 144 2 18.8191 10.7852 33.2716 12.011 -0.24423
2723 144 3 17.5722 5.46968 31.1821 12.011 -0.1837
2724 144 3 18.4948 4.84418 30.4411 12.011 -0.23415
2725 144 1 19.3522 5.37182 30.053 1.008 0.12909
2726 144 1 18.4021 3.79679 30.1985 1.008 0.12909
2727 144 1 16.7217 4.91895 31.5472 1.008 0.15086
2728 144 1 18.4009 7.40899 30.9281 1.008 0.07222
2729 144 1 16.6698 7.38704 31.2138 1.008 0.07222
2730 144 1 16.748 8.90045 32.8353 1.008 0.09202
2731 144 1 17.5387 8.54403 34.3553 1.008 0.09202
2732 144 1 19.0009 9.29995 31.7669 1.008 0.10167
2733 144 1 19.7931 8.87363 33.2575 1.008 0.10167
2734 144 1 19.4945 11.3791 32.6505 1.008 0.08773
2735 144 1 17.815 11.1926 33.1531 1.008 0.08773
2736 144 1 19.1232 10.9121 34.3133 1.008 0.08773
2737 145 4 20.1505 3.80188 2.48917 15.999 -0.35515
2738 145 2 20.6996 3.25473 3.67373 12.011 0.03297
2739 145 2 20.0747 5.21328 2.55163 12.011 0.01762
2740 145 2 18.9809 5.64307 3.5365 12.011 -0.23743
2741 145 2 18.7502 7.14512 3.51649 12.011 -0.24423
2742 145 3 20.9305 1.78365 3.4613 12.011 -0.1837
2743 145 3 20.2299 0.823692 4.07468 12.011 -0.23415
2744 145 1 19.4356 1.0617 4.76354 1.008 0.12909
2745 145 1 20.4381 51.7678 3.89331 1.008 0.12909
2746 145 1 21.712 1.51516 2.76929 1.008 0.15086
2747 145 1 20.0178 3.37829 4.51174 1.008 0.07222
2748 145 1 21.645 3.73439 3.92783 1.008 0.07222
2749 145 1 21.0362 5.63375 2.8477 1.008 0.09202
2750 145 1 19.8441 5.59495 1.55536 1.008 0.09202
2751 145 1 19.2462 5.38443 4.56023 1.008 0.10167
2752 145 1 18.0386 5.14153 3.30842 1.008 0.10167
2753 145 1 18.2824 7.45487 4.45076 1.008 0.08773
2754 145 1 19.6818 7.70087 3.42145 1.008 0.08773
2755 145 1 18.0865 7.42999 2.69799 1.008 0.08773
2756 146 4 27.2155 36.5358 6.86669 15.999 -0.35515
2757 146 2 28.1885 35.6461 7.38398 12.011 0.03297
2758 146 2 27.8078 37.6545 6.22531 12.011 0.01762
2759 146 2 28.5173 38.5247 7.2718 12.011 -0.23743
2760 146 2 29.0428 39.8523 6.74172 12.011 -0.24423
2761 146 3 27.5173 34.3669 7.80656 12.011 -0.1837
2762 146 3 27.5315 33.8998 9.05828 12.011 -0.23415
2763 146 1 28.0256 34.4344 9.85221 1.008 0.12909
2764 146 1 27.0404 32.9742 9.31162 1.008 0.12909
2765 146 1 27.0121 33.8031 7.03969 1.008 0.15086
2766 146 1 28.6838 36.0711 8.25416 1.008 0.07222
2767 146 1 28.9446 35.4212 6.6326 1.008 0.07222
2768 146 1 28.5015 37.334 5.44499 1.008 0.09202
2769 146 1 27.0189 38.2329 5.74023 1.008 0.09202
2770 146 1 29.3764 38.014 7.70143 1.008 0.10167
2771 146 1 27.8211 38.7325 8.08313 1.008 0.10167
2772 146 1 29.8432 40.2306 7.38109 1.008 0.08773
2773 146 1 29.4481 39.7566 5.73469 1.008 0.08773
2774 146 1 28.246 40.5936 6.75527 1.008 0.08773
2775 147 4 40.3254 19.0308 8.7344 15.999 -0.35515
2776 147 2 39.7635 19.2562 10.0126 12.011 0.03297
2777 147 2 41.215 17.9277 8.7334 12.011 0.01762
2778 147 2 42.4624 18.254 9.56693 12.011 -0.23743
2779 147 2 43.5217 17.1786 9.42204 12.011 -0.24423
2780 147 3 38.7211 20.3346 9.897 12.011 -0.1837
2781 147 3 38.8525 21.5519 10.4347 12.011 -0.23415
2782 147 1 39.7375 21.8305 10.9837 1.008 0.12909
2783 147 1 38.073 22.2891 10.3434 1.008 0.12909
2784 147 1 37.8248 20.0864 9.35218 1.008 0.15086
2785 147 1 40.5198 19.5981 10.7151 1.008 0.07222
2786 147 1 39.3123 18.3461 10.4089 1.008 0.07222
2787 147 1 40.7289 17.0236 9.10664 1.008 0.09202
2788 147 1 41.5151 17.7243 7.70325 1.008 0.09202
2789 147 1 42.2334 18.3193 10.6294 1.008 0.10167
2790 147 1 42.8896 19.2081 9.26695 1.008 0.10167
2791 147 1 44.3447 17.3404 10.1163 1.008 0.08773
2792 147 1 43.087 16.2064 9.6417 1.008 0.08773
2793 147 1 43.9374 17.1452 8.41309 1.008 0.08773
2794 148 4 44.5446 32.0063 44.8728 15.999 -0.35515
2795 148 2 43.4961 32.7911 44.3371 12.011 0.03297
2796 148 2 45.5186 31.6611 43.8981 12.011 0.01762
2797 148 2 44.9399 30.6673 42.8768 12.011 -0.23743
2798 148 2 45.9868 30.0787 41.9311 12.011 -0.24423
2799 148 3 42.6217 33.295 45.4572 12.011 -0.1837
2800 148 3 41.3692 32.8815 45.6825 12.011 -0.23415
2801 148 1 40.9042 32.1288 45.0678 1.008 0.12909
2802 148 1 40.7882 33.2941 46.492 1.008 0.12909
2803 148 1 43.0494 34.0452 46.1017 1.008 0.15086
2804 148 1 42.8902 32.1987 43.6603 1.008 0.07222
2805 148 1 43.8931 33.6411 43.7843 1.008 0.07222
2806 148 1 45.8947 32.5547 43.3975 1.008 0.09202
2807 148 1 46.3655 31.2039 44.4129 1.008 0.09202
2808 148 1 44.1923 31.1507 42.2495 1.008 0.10167
2809 148 1 44.445 29.8468 43.3952 1.008 0.10167
2810 148 1 45.4954 29.6014 41.0792 1.008 0.08773
2811 148 1 46.6436 30.8485 41.528 1.008 0.08773
2812 148 1 46.599 29.324 42.4279 1.008 0.08773
2813 149 4 45.1126 1.6608 35.9367 15.999 -0.35515
2814 149 2 44.1407 2.335 35.1901 12.011 0.03297
2815 149 2 45.9689 2.61469 36.5517 12.011 0.01762
2816 149 2 46.8096 3.41397 35.5244 12.011 -0.23743
2817 149 2 47.767 4.39944 36.1868 12.011 -0.24423
2818 149 3 43.0138 1.43425 34.818 12.011 -0.1837
2819 149 3 42.6252 1.25636 33.532 12.011 -0.23415
2820 149 1 43.1862 1.7726 32.749 1.008 0.12909
2821 149 1 41.8205 0.605835 33.2128 1.008 0.12909
2822 149 1 42.4464 0.887728 35.5857 1.008 0.15086
2823 149 1 44.5564 2.69917 34.2616 1.008 0.07222
2824 149 1 43.702 3.15445 35.7277 1.008 0.07222
2825 149 1 45.3789 3.30057 37.176 1.008 0.09202
2826 149 1 46.6411 2.07849 37.2332 1.008 0.09202
2827 149 1 46.1623 3.99312 34.8633 1.008 0.10167
2828 149 1 47.3712 2.724 34.891 1.008 0.10167
2829 149 1 48.1368 5.10062 35.4477 1.008 0.08773
2830 149 1 47.2645 4.96703 36.9621 1.008 0.08773
2831 149 1 48.611 3.88131 36.6235 1.008 0.08773
2832 150 4 43.8925 29.1184 33.527 15.999 -0.35515
2833 150 2 44.9526 30.0189 33.2642 12.011 0.03297
2834 150 2 42.6055 29.7041 33.4618 12.011 0.01762
2835 150 2 42.4018 30.6945 34.6085 12.011 -0.23743
2836 150 2 40.9666 31.2182 34.715 12.011 -0.24423
2837 150 3 46.2332 29.2263 33.1752 12.011 -0.1837
2838 150 3 47.3146 29.4224 33.9401 12.011 -0.23415
2839 150 1 47.3477 30.1881 34.6987 1.008 0.12909
2840 150 1 48.1895 28.8014 33.819 1.008 0.12909
2841 150 1 46.2507 28.4374 32.4421 1.008 0.15086
2842 150 1 45.0463 30.7306 34.0771 1.008 0.07222
2843 150 1 44.791 30.561 32.3313 1.008 0.07222
2844 150 1 42.4348 30.18 32.495 1.008 0.09202
2845 150 1 41.8817 28.8965 33.5695 1.008 0.09202
2846 150 1 43.0478 31.5625 34.494 1.008 0.10167
2847 150 1 42.683 30.2061 35.5407 1.008 0.10167
2848 150 1 40.9421 32.1346 35.3083 1.008 0.08773
2849 150 1 40.5608 31.4678 33.7353 1.008 0.08773
2850 150 1 40.3086 30.4969 35.2014 1.008 0.08773
2851 151 4 46.7645 4.95369 15.2245 15.999 -0.35515
2852 151 2 46.6022 4.7252 13.8361 12.011 0.03297
2853 151 2 46.9699 6.31934 15.5438 12.011 0.01762
2854 151 2 48.3502 6.78788 15.0552 12.011 -0.23743
2855 151 2 48.7084 8.18527 15.5555 12.011 -0.24423
2856 151 3 46.2113 3.28414 13.622 12.011 -0.1837
2857 151 3 46.988 2.37265 13.0249 12.011 -0.23415
2858 151 1 47.9722 2.6182 12.6609 1.008 0.12909
2859 151 1 46.6486 1.35723 12.8913 1.008 0.12909
2860 151 1 45.2376 2.988 13.9782 1.008 0.15086
2861 151 1 47.5292 4.91785 13.3009 1.008 0.07222
2862 151 1 45.8271 5.37104 13.4237 1.008 0.07222
2863 151 1 46.1738 6.93743 15.1254 1.008 0.09202
2864 151 1 46.9144 6.42208 16.6291 1.008 0.09202
2865 151 1 48.3854 6.81443 13.9668 1.008 0.10167
2866 151 1 49.1213 6.09087 15.3863 1.008 0.10167
2867 151 1 49.5387 8.59771 14.9775 1.008 0.08773
2868 151 1 47.8606 8.85984 15.4533 1.008 0.08773
2869 151 1 49.0056 8.17144 16.6061 1.008 0.08773
2870 152 4 9.09866 14.6383 39.09 15.999 -0.35515
2871 152 2 8.47862 15.6225 38.2827 12.011 0.03297
2872 152 2 10.508 14.63 38.9411 12.011 0.01762
2873 152 2 10.8885 14.004 37.5903 12.011 -0.23743
2874 152 2 12.3903 13.7692 37.4286 12.011 -0.24423
2875 152 3 7.03833 15.7601 38.7049 12.011 -0.1837
2876 152 3 5.99468 15.3493 37.9759 12.011 -0.23415
2877 152 1 6.12588 14.8673 37.0206 1.008 0.12909
2878 152 1 4.98523 15.4923 38.3281 1.008 0.12909
2879 152 1 6.86011 16.2329 39.6569 1.008 0.15086
2880 152 1 8.52418 15.3464 37.2316 1.008 0.07222
2881 152 1 8.96606 16.5895 38.403 1.008 0.07222
2882 152 1 10.9127 15.6391 39.0385 1.008 0.09202
2883 152 1 10.9307 14.0381 39.7545 1.008 0.09202
2884 152 1 10.5683 14.6383 36.7656 1.008 0.10167
2885 152 1 10.3799 13.0468 37.4703 1.008 0.10167
2886 152 1 12.6279 13.5626 36.3823 1.008 0.08773
2887 152 1 12.9722 14.639 37.7309 1.008 0.08773
2888 152 1 12.7235 12.9114 38.0152 1.008 0.08773
2889 153 4 45.3498 10.4361 42.2365 15.999 -0.35515
2890 153 2 46.6226 9.92871 42.5933 12.011 0.03297
2891 153 2 45.3825 11.7199 41.636 12.011 0.01762
2892 153 2 45.7671 12.7967 42.6643 12.011 -0.23743
2893 153 2 45.6119 14.2225 42.1294 12.011 -0.24423
2894 153 3 46.4335 8.51287 43.0836 12.011 -0.1837
2895 153 3 46.6492 8.11026 44.3428 12.011 -0.23415
2896 153 1 46.9846 8.79179 45.109 1.008 0.12909
2897 153 1 46.4937 7.08164 44.6315 1.008 0.12909
2898 153 1 46.0945 7.79561 42.3519 1.008 0.15086
2899 153 1 47.0704 10.5241 43.3866 1.008 0.07222
2900 153 1 47.2996 9.92811 41.7379 1.008 0.07222
2901 153 1 46.0576 11.7329 40.7792 1.008 0.09202
2902 153 1 44.3828 11.9236 41.2527 1.008 0.09202
2903 153 1 46.8056 12.6724 42.9677 1.008 0.10167
2904 153 1 45.1581 12.6987 43.5643 1.008 0.10167
2905 153 1 46.2096 14.9141 42.7291 1.008 0.08773
2906 153 1 45.9494 14.304 41.0954 1.008 0.08773
2907 153 1 44.5738 14.5586 42.183 1.008 0.08773
2908 154 4 38.77 6.25016 1.46188 15.999 -0.35515
2909 154 2 38.4653 5.62779 2.69866 12.011 0.03297
2910 154 2 40.1654 6.39153 1.24514 12.011 0.01762
2911 154 2 40.754 7.45556 2.18745 12.011 -0.23743
2912 154 2 42.2099 7.80792 1.8774 12.011 -0.24423
2913 154 3 36.9882 5.32555 2.75111 12.011 -0.1837
2914 154 3 36.1226 5.93042 3.57298 12.011 -0.23415
2915 154 1 36.4381 6.7019 4.25594 1.008 0.12909
2916 154 1 35.0781 5.65917 3.57587 1.008 0.12909
2917 154 1 36.627 4.56167 2.082 1.008 0.15086
2918 154 1 38.7184 6.27834 3.53252 1.008 0.07222
2919 154 1 39.0201 4.69658 2.81204 1.008 0.07222
2920 154 1 40.6733 5.43363 1.36953 1.008 0.09202
2921 154 1 40.3155 6.69785 0.208733 1.008 0.09202
2922 154 1 40.72 7.11264 3.22024 1.008 0.10167
2923 154 1 40.1594 8.3681 2.13362 1.008 0.10167
2924 154 1 42.6549 8.34512 2.71884 1.008 0.08773
2925 154 1 42.8119 6.91593 1.70365 1.008 0.08773
2926 154 1 42.2875 8.4494 0.997639 1.008 0.08773
2927 155 4 17.5454 19.4334 4.48649 15.999 -0.35515
2928 155 2 18.2629 18.8782 3.39753 12.011 0.03297
2929 155 2 18.2416 20.4078 5.24935 12.011 0.01762
2930 155 2 19.4515 19.8024 5.98384 12.011 -0.23743
2931 155 2 20.145 20.8136 6.89607 12.011 -0.24423
2932 155 3 17.336 17.9296 2.67094 12.011 -0.1837
2933 155 3 17.5678 16.6233 2.48668 12.011 -0.23415
2934 155 1 18.4592 16.1423 2.85389 1.008 0.12909
2935 155 1 16.8471 16.0019 1.97947 1.008 0.12909
2936 155 1 16.4149 18.347 2.2945 1.008 0.15086
2937 155 1 19.1287 18.3203 3.74677 1.008 0.07222
2938 155 1 18.6026 19.6565 2.71454 1.008 0.07222
2939 155 1 18.5332 21.2543 4.62524 1.008 0.09202
2940 155 1 17.5428 20.8012 5.99025 1.008 0.09202
2941 155 1 20.1957 19.449 5.27406 1.008 0.10167
2942 155 1 19.1509 18.9454 6.58822 1.008 0.10167
2943 155 1 21.1759 20.5035 7.08204 1.008 0.08773
2944 155 1 20.189 21.8077 6.45172 1.008 0.08773
2945 155 1 19.6288 20.9045 7.85369 1.008 0.08773
2946 156 4 27.5543 23.3792 20.1532 15.999 -0.35515
2947 156 2 26.4023 22.6224 20.4805 12.011 0.03297
2948 156 2 27.2335 24.679 19.6881 12.011 0.01762
2949 156 2 26.568 24.5827 18.3108 12.011 -0.23743
2950 156 2 26.4323 25.9169 17.588 12.011 -0.24423
2951 156 3 26.8568 21.3232 21.0898 12.011 -0.1837
2952 156 3 26.6134 20.1287 20.5438 12.011 -0.23415
2953 156 1 26.0608 20.0354 19.6221 1.008 0.12909
2954 156 1 26.92 19.2153 21.0265 1.008 0.12909
2955 156 1 27.3758 21.381 22.0301 1.008 0.15086
2956 156 1 25.812 22.3907 19.5954 1.008 0.07222
2957 156 1 25.7682 23.1646 21.1843 1.008 0.07222
2958 156 1 26.5806 25.1912 20.3964 1.008 0.09202
2959 156 1 28.152 25.2605 19.6168 1.008 0.09202
2960 156 1 25.5637 24.194 18.4335 1.008 0.10167
2961 156 1 27.112 23.8889 17.6693 1.008 0.10167
2962 156 1 25.7117 25.8255 16.7703 1.008 0.08773
2963 156 1 26.0721 26.6829 18.2712 1.008 0.08773
2964 156 1 27.3816 26.2475 17.1647 1.008 0.08773
2965 157 4 31.879 30.0931 44.9174 15.999 -0.35515
2966 157 2 32.5307 29.3321 43.9171 12.011 0.03297
2967 157 2 31.2233 29.2718 45.8725 12.011 0.01762
2968 157 2 30.0436 28.5221 45.231 12.011 -0.23743
2969 157 2 29.16 27.7765 46.2295 12.011 -0.24423
2970 157 3 33.348 30.2226 43.0228 12.011 -0.1837
2971 157 3 33.0809 30.4271 41.7282 12.011 -0.23415
2972 157 1 32.2339 29.9568 41.2513 1.008 0.12909
2973 157 1 33.7033 31.0656 41.1202 1.008 0.12909
2974 157 1 34.1991 30.7078 43.4693 1.008 0.15086
2975 157 1 31.8021 28.8235 43.2874 1.008 0.07222
2976 157 1 33.1826 28.5882 44.3743 1.008 0.07222
2977 157 1 31.929 28.5729 46.3188 1.008 0.09202
2978 157 1 30.8614 29.9096 46.6793 1.008 0.09202
2979 157 1 30.4002 27.7862 44.511 1.008 0.10167
2980 157 1 29.4246 29.2295 44.6812 1.008 0.10167
2981 157 1 28.5017 27.0875 45.6945 1.008 0.08773
2982 157 1 29.7554 27.1922 46.93 1.008 0.08773
2983 157 1 28.5344 28.4687 46.7944 1.008 0.08773
2984 158 4 27.5304 42.5332 14.0814 15.999 -0.35515
2985 158 2 28.7697 41.9813 14.4827 12.011 0.03297
2986 158 2 27.0949 43.5498 14.959 12.011 0.01762
2987 158 2 26.8 42.9584 16.3447 12.011 -0.23743
2988 158 2 26.2098 43.979 17.3102 12.011 -0.24423
2989 158 3 29.3479 41.1787 13.3488 12.011 -0.1837
2990 158 3 29.7335 39.9037 13.4571 12.011 -0.23415
2991 158 1 29.643 39.3731 14.3802 1.008 0.12909
2992 158 1 30.1687 39.3748 12.632 1.008 0.12909
2993 158 1 29.4639 41.6805 12.3965 1.008 0.15086
2994 158 1 28.6621 41.3236 15.3379 1.008 0.07222
2995 158 1 29.4773 42.7612 14.7473 1.008 0.07222
2996 158 1 27.8401 44.3462 15.0182 1.008 0.09202
2997 158 1 26.1886 43.9877 14.539 1.008 0.09202
2998 158 1 27.7119 42.5815 16.8024 1.008 0.10167
2999 158 1 26.1164 42.112 16.244 1.008 0.10167
3000 158 1 26.2448 43.5845 18.3276 1.008 0.08773
3001 158 1 26.7653 44.9171 17.2908 1.008 0.08773
3002 158 1 25.1674 44.1863 17.072 1.008 0.08773
3003 159 4 45.7697 31.9612 38.8526 15.999 -0.35515
3004 159 2 44.4958 32.5728 38.8908 12.011 0.03297
3005 159 2 46.791 32.8848 39.1788 12.011 0.01762
3006 159 2 47.0148 33.8173 37.9823 12.011 -0.23743
3007 159 2 48.2681 34.6804 38.0771 12.011 -0.24423
3008 159 3 43.4477 31.5268 38.7038 12.011 -0.1837
3009 159 3 42.5547 31.5614 37.7139 12.011 -0.23415
3010 159 1 42.572 32.3366 36.9585 1.008 0.12909
3011 159 1 41.7747 30.8114 37.6378 1.008 0.12909
3012 159 1 43.3777 30.7622 39.448 1.008 0.15086
3013 159 1 44.3842 33.3029 38.0908 1.008 0.07222
3014 159 1 44.3157 33.0703 39.8454 1.008 0.07222
3015 159 1 46.5192 33.4444 40.0728 1.008 0.09202
3016 159 1 47.6997 32.3321 39.4103 1.008 0.09202
3017 159 1 46.1609 34.4826 37.8747 1.008 0.10167
3018 159 1 47.0764 33.2226 37.0703 1.008 0.10167
3019 159 1 48.224 35.474 37.3281 1.008 0.08773
3020 159 1 48.3582 35.1458 39.0578 1.008 0.08773
3021 159 1 49.1619 34.085 37.8844 1.008 0.08773
3022 160 4 32.9243 23.3214 25.3471 15.999 -0.35515
3023 160 2 32.394 22.3833 26.2675 12.011 0.03297
3024 160 2 32.4271 23.1418 24.0295 12.011 0.01762
3025 160 2 32.9414 21.8134 23.4572 12.011 -0.23743
3026 160 2 32.7449 21.6706 21.9455 12.011 -0.24423
3027 160 3 32.7822 22.7852 27.6686 12.011 -0.1837
3028 160 3 33.6059 22.0819 28.4548 12.011 -0.23415
3029 160 1 34.0689 21.1675 28.1203 1.008 0.12909
3030 160 1 33.8293 22.4156 29.4551 1.008 0.12909
3031 160 1 32.3536 23.7 28.0463 1.008 0.15086
3032 160 1 32.7856 21.3877 26.0697 1.008 0.07222
3033 160 1 31.3072 22.3449 26.1952 1.008 0.07222
3034 160 1 31.3363 23.1779 24.0101 1.008 0.09202
3035 160 1 32.7829 23.9719 23.4165 1.008 0.09202
3036 160 1 32.4386 20.9704 23.9295 1.008 0.10167
3037 160 1 34 21.7132 23.6877 1.008 0.10167
3038 160 1 32.9747 20.6491 21.6312 1.008 0.08773
3039 160 1 31.7144 21.8779 21.6547 1.008 0.08773
3040 160 1 33.4013 22.3425 21.3892 1.008 0.08773
3041 161 4 4.21842 28.8338 4.23259 15.999 -0.35515
3042 161 2 5.54939 28.3972 4.03213 12.011 0.03297
3043 161 2 3.25204 27.7983 4.25038 12.011 0.01762
3044 161 2 3.03613 27.2382 2.83745 12.011 -0.23743
3045 161 2 1.87349 26.2436 2.76656 12.011 -0.24423
3046 161 3 6.45588 29.5867 4.25344 12.011 -0.1837
3047 161 3 7.30372 30.0904 3.34757 12.011 -0.23415
3048 161 1 7.39394 29.6787 2.35589 1.008 0.12909
3049 161 1 7.91043 30.9493 3.59087 1.008 0.12909
3050 161 1 6.39166 30.0637 5.22132 1.008 0.15086
3051 161 1 5.68885 28.0074 3.02594 1.008 0.07222
3052 161 1 5.81388 27.6141 4.74263 1.008 0.07222
3053 161 1 3.53057 27.0135 4.95795 1.008 0.09202
3054 161 1 2.31478 28.2328 4.60491 1.008 0.09202
3055 161 1 3.93433 26.7296 2.48992 1.008 0.10167
3056 161 1 2.83547 28.0547 2.14148 1.008 0.10167
3057 161 1 1.93196 25.6571 1.84665 1.008 0.08773
3058 161 1 1.88991 25.5442 3.60331 1.008 0.08773
3059 161 1 0.906592 26.7529 2.76983 1.008 0.08773
3060 162 4 47.8598 16.6628 11.1686 15.999 -0.35515
3061 162 2 48.9057 15.8843 11.7202 12.011 0.03297
3062 162 2 46.6536 16.5479 11.9051 12.011 0.01762
3063 162 2 46.0203 15.1644 11.6785 12.011 -0.23743
3064 162 2 44.6323 15.0065 12.2975 12.011 -0.24423
3065 162 3 50.201 16.2446 11.0402 12.011 -0.1837
3066 162 3 50.887 15.4186 10.2428 12.011 -0.23415
3067 162 1 50.5351 14.424 10.0234 1.008 0.12909
3068 162 1 51.8165 15.728 9.79264 1.008 0.12909
3069 162 1 50.5864 17.2343 11.2278 1.008 0.15086
3070 162 1 48.7143 14.8228 11.5809 1.008 0.07222
3071 162 1 49.0106 16.0761 12.7863 1.008 0.07222
3072 162 1 46.8313 16.7255 12.9658 1.008 0.09202
3073 162 1 45.9789 17.3335 11.5678 1.008 0.09202
3074 162 1 46.6452 14.3928 12.1204 1.008 0.10167
3075 162 1 45.9465 14.9501 10.6105 1.008 0.10167
3076 162 1 44.4042 13.9492 12.436 1.008 0.08773
3077 162 1 44.5701 15.4785 13.2743 1.008 0.08773
3078 162 1 43.8558 15.4259 11.6576 1.008 0.08773
3079 163 4 38.4233 32.4381 3.25663 15.999 -0.35515
3080 163 2 37.9948 31.8715 4.48128 12.011 0.03297
3081 163 2 37.9603 31.6997 2.13469 12.011 0.01762
3082 163 2 38.648 30.3248 2.04632 12.011 -0.23743
3083 163 2 38.3662 29.5831 0.736885 12.011 -0.24423
3084 163 3 38.3334 32.7662 5.64691 12.011 -0.1837
3085 163 3 39.205 32.4379 6.60788 12.011 -0.23415
3086 163 1 39.7406 31.5019 6.58517 1.008 0.12909
3087 163 1 39.3976 33.0984 7.43787 1.008 0.12909
3088 163 1 37.8156 33.7102 5.70641 1.008 0.15086
3089 163 1 38.4979 30.9235 4.63938 1.008 0.07222
3090 163 1 36.9195 31.6949 4.47205 1.008 0.07222
3091 163 1 36.8761 31.5845 2.1773 1.008 0.09202
3092 163 1 38.1843 32.2774 1.23727 1.008 0.09202
3093 163 1 38.3167 29.6766 2.85615 1.008 0.10167
3094 163 1 39.7277 30.4401 2.15037 1.008 0.10167
3095 163 1 38.657 28.5332 0.828799 1.008 0.08773
3096 163 1 37.3078 29.6062 0.477648 1.008 0.08773
3097 163 1 38.9337 30.0072 51.8923 1.008 0.08773
3098 164 4 8.80324 44.8435 17.2072 15.999 -0.35515
3099 164 2 8.47079 44.9153 15.827 12.011 0.03297
3100 164 2 8.33202 45.9378 17.9797 12.011 0.01762
3101 164 2 9.09158 47.2384 17.659 12.011 -0.23743
3102 164 2 8.76116 48.3982 18.6022 12.011 -0.24423
3103 164 3 8.91983 43.6385 15.1526 12.011 -0.1837
3104 164 3 9.85203 43.5592 14.1943 12.011 -0.23415
3105 164 1 10.3771 44.4258 13.8272 1.008 0.12909
3106 164 1 10.118 42.6075 13.7595 1.008 0.12909
3107 164 1 8.44568 42.7273 15.4768 1.008 0.15086
3108 164 1 8.96384 45.7572 15.3466 1.008 0.07222
3109 164 1 7.39639 45.0303 15.6903 1.008 0.07222
3110 164 1 7.25802 46.0682 17.8434 1.008 0.09202
3111 164 1 8.49149 45.6849 19.027 1.008 0.09202
3112 164 1 8.86183 47.5669 16.6474 1.008 0.10167
3113 164 1 10.1662 47.071 17.7109 1.008 0.10167
3114 164 1 9.10163 49.3436 18.1709 1.008 0.08773
3115 164 1 7.68895 48.4848 18.777 1.008 0.08773
3116 164 1 9.25877 48.282 19.5672 1.008 0.08773
3117 165 4 18.1272 24.5727 46.6975 15.999 -0.35515
3118 165 2 17.392 25.726 46.336 12.011 0.03297
3119 165 2 18.7393 24.729 47.964 12.011 0.01762
3120 165 2 19.9209 25.7012 47.8506 12.011 -0.23743
3121 165 2 20.7942 25.7192 49.1024 12.011 -0.24423
3122 165 3 16.5668 25.4447 45.1084 12.011 -0.1837
3123 165 3 16.6569 26.1522 43.9768 12.011 -0.23415
3124 165 1 17.3592 26.9615 43.8723 1.008 0.12909
3125 165 1 16.0207 25.9389 43.1343 1.008 0.12909
3126 165 1 15.8359 24.6533 45.1853 1.008 0.15086
3127 165 1 18.054 26.5609 46.1212 1.008 0.07222
3128 165 1 16.7239 26.0238 47.1433 1.008 0.07222
3129 165 1 18.0171 25.0772 48.7044 1.008 0.09202
3130 165 1 19.0927 23.755 48.3029 1.008 0.09202
3131 165 1 19.5665 26.7179 47.6875 1.008 0.10167
3132 165 1 20.5382 25.4366 46.9921 1.008 0.10167
3133 165 1 21.3729 26.6424 49.1419 1.008 0.08773
3134 165 1 20.1962 25.6845 50.0113 1.008 0.08773
3135 165 1 21.4877 24.8758 49.1115 1.008 0.08773
3136 166 4 3.51964 7.99122 4.36414 15.999 -0.35515
3137 166 2 4.80695 8.509 4.65371 12.011 0.03297
3138 166 2 3.05627 7.08241 5.35042 12.011 0.01762
3139 166 2 3.85453 5.77086 5.28374 12.011 -0.23743
3140 166 2 3.27711 4.66057 6.16193 12.011 -0.24423
3141 166 3 5.12499 9.60695 3.67011 12.011 -0.1837
3142 166 3 6.11102 9.55363 2.76753 12.011 -0.23415
3143 166 1 6.74452 8.68676 2.67433 1.008 0.12909
3144 166 1 6.30005 10.3821 2.10345 1.008 0.12909
3145 166 1 4.51331 10.4928 3.72375 1.008 0.15086
3146 166 1 5.56635 7.73468 4.57263 1.008 0.07222
3147 166 1 4.84257 8.91526 5.6645 1.008 0.07222
3148 166 1 3.11322 7.52504 6.34644 1.008 0.09202
3149 166 1 2.00263 6.87871 5.15285 1.008 0.09202
3150 166 1 4.88289 5.93008 5.60344 1.008 0.10167
3151 166 1 3.89115 5.41251 4.25441 1.008 0.10167
3152 166 1 4.01099 3.8605 6.28507 1.008 0.08773
3153 166 1 3.02028 5.02562 7.15599 1.008 0.08773
3154 166 1 2.38361 4.22242 5.71408 1.008 0.08773
3155 167 4 46.9756 49.7124 33.5143 15.999 -0.35515
3156 167 2 45.9703 49.4819 32.5575 12.011 0.03297
3157 167 2 47.7292 48.5217 33.7435 12.011 0.01762
3158 167 2 46.8594 47.3818 34.3066 12.011 -0.23743
3159 167 2 47.663 46.1395 34.6787 12.011 -0.24423
3160 167 3 45.346 50.7173 31.9529 12.011 -0.1837
3161 167 3 44.0465 50.9052 31.8424 12.011 -0.23415
3162 167 1 43.3583 50.2073 32.2657 1.008 0.12909
3163 167 1 43.6195 51.7422 31.3477 1.008 0.12909
3164 167 1 46.018 51.458 31.5212 1.008 0.15086
3165 167 1 45.166 48.9172 33.0008 1.008 0.07222
3166 167 1 46.3714 48.9049 31.7368 1.008 0.07222
3167 167 1 48.2044 48.1957 32.8144 1.008 0.09202
3168 167 1 48.5406 48.7438 34.4434 1.008 0.09202
3169 167 1 46.1144 47.0618 33.5767 1.008 0.10167
3170 167 1 46.316 47.7196 35.191 1.008 0.10167
3171 167 1 47.0007 45.3056 34.934 1.008 0.08773
3172 167 1 48.3077 45.8069 33.8599 1.008 0.08773
3173 167 1 48.3029 46.3407 35.5402 1.008 0.08773
3174 168 4 41.5091 32.8758 40.3268 15.999 -0.35515
3175 168 2 41.2809 34.1003 40.9967 12.011 0.03297
3176 168 2 40.578 31.8437 40.5914 12.011 0.01762
3177 168 2 40.8165 31.2503 41.9863 12.011 -0.23743
3178 168 2 39.8675 30.0952 42.3453 12.011 -0.24423
3179 168 3 42.2382 35.0956 40.3778 12.011 -0.1837
3180 168 3 43.3475 35.5566 40.9728 12.011 -0.23415
3181 168 1 43.6349 35.2531 41.9707 1.008 0.12909
3182 168 1 44.0034 36.2489 40.4615 1.008 0.12909
3183 168 1 42.0114 35.4161 39.3733 1.008 0.15086
3184 168 1 41.4705 34.0077 42.0667 1.008 0.07222
3185 168 1 40.2587 34.4546 40.8545 1.008 0.07222
3186 168 1 39.5721 32.2246 40.459 1.008 0.09202
3187 168 1 40.7102 31.0708 39.8317 1.008 0.09202
3188 168 1 40.6807 32.031 42.7327 1.008 0.10167
3189 168 1 41.843 30.887 42.0485 1.008 0.10167
3190 168 1 39.7752 30.0299 43.4345 1.008 0.08773
3191 168 1 38.8634 30.2521 41.9305 1.008 0.08773
3192 168 1 40.2538 29.1308 41.9974 1.008 0.08773
3193 169 4 33.8444 41.7603 46.2641 15.999 -0.35515
3194 169 2 34.4732 41.7966 47.5348 12.011 0.03297
3195 169 2 33.5792 43.0564 45.7492 12.011 0.01762
3196 169 2 32.4527 43.753 46.535 12.011 -0.23743
3197 169 2 31.9703 45.0553 45.8882 12.011 -0.24423
3198 169 3 34.9189 40.4076 47.9264 12.011 -0.1837
3199 169 3 34.31 39.6466 48.8435 12.011 -0.23415
3200 169 1 33.4238 39.9862 49.3537 1.008 0.12909
3201 169 1 34.6835 38.6676 49.0971 1.008 0.12909
3202 169 1 35.7983 40.0268 47.4345 1.008 0.15086
3203 169 1 33.7853 42.1696 48.2894 1.008 0.07222
3204 169 1 35.344 42.4519 47.5219 1.008 0.07222
3205 169 1 34.4895 43.6571 45.7585 1.008 0.09202
3206 169 1 33.2795 42.9498 44.7059 1.008 0.09202
3207 169 1 32.78 43.9833 47.5473 1.008 0.10167
3208 169 1 31.5958 43.0923 46.6359 1.008 0.10167
3209 169 1 31.3979 45.6467 46.6071 1.008 0.08773
3210 169 1 32.8009 45.6728 45.5461 1.008 0.08773
3211 169 1 31.3213 44.8558 45.0336 1.008 0.08773
3212 170 4 25.9166 5.7661 33.1734 15.999 -0.35515
3213 170 2 27.0475 5.13195 32.6124 12.011 0.03297
3214 170 2 24.8481 4.85352 33.3672 12.011 0.01762
3215 170 2 24.2499 4.42906 32.0148 12.011 -0.23743
3216 170 2 22.9505 3.63569 32.1522 12.011 -0.24423
3217 170 3 28.2373 6.05591 32.652 12.011 -0.1837
3218 170 3 28.7928 6.58111 31.5571 12.011 -0.23415
3219 170 1 28.3813 6.37243 30.5847 1.008 0.12909
3220 170 1 29.6624 7.21663 31.6124 1.008 0.12909
3221 170 1 28.6604 6.27378 33.6189 1.008 0.15086
3222 170 1 26.8525 4.86761 31.5758 1.008 0.07222
3223 170 1 27.287 4.21988 33.1571 1.008 0.07222
3224 170 1 25.1843 3.98356 33.9338 1.008 0.09202
3225 170 1 24.0856 5.34699 33.971 1.008 0.09202
3226 170 1 24.9505 3.80667 31.4593 1.008 0.10167
3227 170 1 24.0492 5.31096 31.4067 1.008 0.10167
3228 170 1 22.6952 3.15985 31.2024 1.008 0.08773
3229 170 1 23.0371 2.84847 32.9011 1.008 0.08773
3230 170 1 22.1164 4.28347 32.4297 1.008 0.08773
3231 171 4 9.652 18.1052 41.8001 15.999 -0.35515
3232 171 2 9.44952 18.9361 42.9307 12.011 0.03297
3233 171 2 9.2505 16.7624 42.0037 12.011 0.01762
3234 171 2 10.1359 16.0736 43.0542 12.011 -0.23743
3235 171 2 9.83104 14.5815 43.1884 12.011 -0.24423
3236 171 3 9.77434 20.3584 42.5534 12.011 -0.1837
3237 171 3 10.8076 21.0602 43.0352 12.011 -0.23415
3238 171 1 11.5044 20.6437 43.7423 1.008 0.12909
3239 171 1 10.9809 22.0784 42.7224 1.008 0.12909
3240 171 1 9.1108 20.8228 41.8451 1.008 0.15086
3241 171 1 10.0994 18.6542 43.7545 1.008 0.07222
3242 171 1 8.4153 18.885 43.2702 1.008 0.07222
3243 171 1 8.19675 16.7147 42.2824 1.008 0.09202
3244 171 1 9.34741 16.2384 41.0536 1.008 0.09202
3245 171 1 9.98237 16.5196 44.0358 1.008 0.10167
3246 171 1 11.1896 16.1998 42.7991 1.008 0.10167
3247 171 1 10.2342 14.1992 44.1303 1.008 0.08773
3248 171 1 8.75466 14.3992 43.1861 1.008 0.08773
3249 171 1 10.2769 14.008 42.3719 1.008 0.08773
3250 172 4 43.3504 1.46467 44.5688 15.999 -0.35515
3251 172 2 44.2834 2.45692 44.1796 12.011 0.03297
3252 172 2 43.0422 1.51294 45.9536 12.011 0.01762
3253 172 2 44.2622 1.10458 46.7968 12.011 -0.23743
3254 172 2 43.9604 0.969184 48.2898 12.011 -0.24423
3255 172 3 44.3721 2.49082 42.6741 12.011 -0.1837
3256 172 3 45.4665 2.15257 41.983 12.011 -0.23415
3257 172 1 46.364 1.82302 42.4799 1.008 0.12909
3258 172 1 45.4827 2.19391 40.905 1.008 0.12909
3259 172 1 43.4922 2.80605 42.1355 1.008 0.15086
3260 172 1 45.2697 2.23875 44.5771 1.008 0.07222
3261 172 1 43.9914 3.43275 44.5598 1.008 0.07222
3262 172 1 42.6898 2.50715 46.2333 1.008 0.09202
3263 172 1 42.2203 0.820419 46.1393 1.008 0.09202
3264 172 1 45.0545 1.84269 46.704 1.008 0.10167
3265 172 1 44.6642 0.158231 46.4339 1.008 0.10167
3266 172 1 44.8915 0.961185 48.8619 1.008 0.08773
3267 172 1 43.3587 1.80026 48.6578 1.008 0.08773
3268 172 1 43.4322 0.0393397 48.5084 1.008 0.08773
3269 173 4 12.7123 22.0149 3.07902 15.999 -0.35515
3270 173 2 11.9582 22.9401 2.31505 12.011 0.03297
3271 173 2 11.9033 20.9416 3.54143 12.011 0.01762
3272 173 2 10.9328 21.4298 4.63379 12.011 -0.23743
3273 173 2 10.2161 20.2936 5.36508 12.011 -0.24423
3274 173 3 12.8479 23.9441 1.63045 12.011 -0.1837
3275 173 3 12.8266 25.2586 1.88046 12.011 -0.23415
3276 173 1 12.177 25.6777 2.62998 1.008 0.12909
3277 173 1 13.4737 25.9408 1.35437 1.008 0.12909
3278 173 1 13.5277 23.5625 0.883637 1.008 0.15086
3279 173 1 11.2668 23.4824 2.95034 1.008 0.07222
3280 173 1 11.3835 22.4253 1.54874 1.008 0.07222
3281 173 1 11.3519 20.4918 2.71279 1.008 0.09202
3282 173 1 12.554 20.1605 3.9379 1.008 0.09202
3283 173 1 10.1608 22.0604 4.19652 1.008 0.10167
3284 173 1 11.4627 22.0344 5.37046 1.008 0.10167
3285 173 1 9.32611 20.6707 5.87652 1.008 0.08773
3286 173 1 9.89372 19.5196 4.67285 1.008 0.08773
3287 173 1 10.8513 19.8231 6.11791 1.008 0.08773
3288 174 4 20.2202 17.7629 14.6749 15.999 -0.35515
3289 174 2 19.6683 18.8557 13.9585 12.011 0.03297
3290 174 2 21.2112 17.0683 13.9335 12.011 0.01762
3291 174 2 20.5651 16.2958 12.7799 12.011 -0.23743
3292 174 2 21.5228 15.3538 12.0493 12.011 -0.24423
3293 174 3 18.822 19.6827 14.8914 12.011 -0.1837
3294 174 3 17.5073 19.8669 14.7314 12.011 -0.23415
3295 174 1 16.9859 19.415 13.9043 1.008 0.12909
3296 174 1 16.9344 20.4704 15.4175 1.008 0.12909
3297 174 1 19.3249 20.1499 15.7227 1.008 0.15086
3298 174 1 19.0431 18.509 13.1384 1.008 0.07222
3299 174 1 20.4495 19.4873 13.5414 1.008 0.07222
3300 174 1 21.9703 17.7568 13.558 1.008 0.09202
3301 174 1 21.7163 16.3733 14.6013 1.008 0.09202
3302 174 1 20.1951 17.0076 12.0528 1.008 0.10167
3303 174 1 19.7086 15.7255 13.1378 1.008 0.10167
3304 174 1 21.1042 15.0598 11.0838 1.008 0.08773
3305 174 1 22.4853 15.8293 11.8587 1.008 0.08773
3306 174 1 21.7014 14.4438 12.6261 1.008 0.08773
3307 175 4 44.6022 18.7069 28.402 15.999 -0.35515
3308 175 2 43.8509 18.6671 27.2013 12.011 0.03297
3309 175 2 45.8063 17.9675 28.3032 12.011 0.01762
3310 175 2 45.5121 16.466 28.2127 12.011 -0.23743
3311 175 2 46.7794 15.6343 28.3017 12.011 -0.24423
3312 175 3 42.7025 19.6374 27.2999 12.011 -0.1837
3313 175 3 41.4199 19.2779 27.4258 12.011 -0.23415
3314 175 1 41.1269 18.243 27.4797 1.008 0.12909
3315 175 1 40.63 20.0117 27.479 1.008 0.12909
3316 175 1 42.951 20.6835 27.2537 1.008 0.15086
3317 175 1 43.449 17.6718 27.0321 1.008 0.07222
3318 175 1 44.4642 18.9386 26.3423 1.008 0.07222
3319 175 1 46.3998 18.2982 27.4502 1.008 0.09202
3320 175 1 46.4036 18.1594 29.1947 1.008 0.09202
3321 175 1 45.0277 16.2034 27.2734 1.008 0.10167
3322 175 1 44.8416 16.1591 29.016 1.008 0.10167
3323 175 1 46.556 14.615 27.9826 1.008 0.08773
3324 175 1 47.5697 16.0179 27.6573 1.008 0.08773
3325 175 1 47.1504 15.6084 29.328 1.008 0.08773
3326 176 4 15.341 17.0384 7.1241 15.999 -0.35515
3327 176 2 15.6085 18.4312 7.12803 12.011 0.03297
3328 176 2 16.5419 16.2709 7.13638 12.011 0.01762
3329 176 2 17.344 16.341 5.83546 12.011 -0.23743
3330 176 2 18.5742 15.426 5.85827 12.011 -0.24423
3331 176 3 14.3547 19.2574 7.29297 12.011 -0.1837
3332 176 3 13.9463 20.168 6.40466 12.011 -0.23415
3333 176 1 14.4882 20.3429 5.49104 1.008 0.12909
3334 176 1 13.0649 20.7601 6.57894 1.008 0.12909
3335 176 1 13.7775 19.1356 8.19395 1.008 0.15086
3336 176 1 16.0658 18.7139 6.1909 1.008 0.07222
3337 176 1 16.2982 18.6991 7.92385 1.008 0.07222
3338 176 1 17.2058 16.6088 7.92192 1.008 0.09202
3339 176 1 16.2931 15.2357 7.36338 1.008 0.09202
3340 176 1 17.712 17.3512 5.6992 1.008 0.10167
3341 176 1 16.7181 16.115 4.97254 1.008 0.10167
3342 176 1 19.3116 15.7749 5.1291 1.008 0.08773
3343 176 1 19.054 15.4405 6.84091 1.008 0.08773
3344 176 1 18.3041 14.3952 5.61062 1.008 0.08773
3345 177 4 9.19415 47.6787 40.214 15.999 -0.35515
3346 177 2 9.97193 47.6505 41.3968 12.011 0.03297
3347 177 2 9.61816 46.7348 39.2482 12.011 0.01762
3348 177 2 10.9114 47.2358 38.5913 12.011 -0.23743
3349 177 2 11.3657 46.3918 37.3996 12.011 -0.24423
3350 177 3 9.2557 48.4594 42.4465 12.011 -0.1837
3351 177 3 9.68579 49.6235 42.9474 12.011 -0.23415
3352 177 1 10.5993 50.0861 42.6114 1.008 0.12909
3353 177 1 9.10168 50.1474 43.6891 1.008 0.12909
3354 177 1 8.31653 48.0595 42.7861 1.008 0.15086
3355 177 1 10.9625 48.0653 41.2267 1.008 0.07222
3356 177 1 10.0805 46.6312 41.7659 1.008 0.07222
3357 177 1 9.75325 45.7498 39.6988 1.008 0.09202
3358 177 1 8.83007 46.6366 38.4988 1.008 0.09202
3359 177 1 11.7251 47.2431 39.3141 1.008 0.10167
3360 177 1 10.7753 48.2638 38.254 1.008 0.10167
3361 177 1 12.4023 46.6287 37.1488 1.008 0.08773
3362 177 1 11.3181 45.3249 37.6158 1.008 0.08773
3363 177 1 10.758 46.5884 36.5147 1.008 0.08773
3364 178 4 41.8524 11.9427 10.8187 15.999 -0.35515
3365 178 2 41.3722 12.5169 12.0247 12.011 0.03297
3366 178 2 42.7066 10.8209 10.9691 12.011 0.01762
3367 178 2 44.0207 11.1978 11.6701 12.011 -0.23743
3368 178 2 45.0145 10.0384 11.7397 12.011 -0.24423
3369 178 3 40.433 13.6386 11.6429 12.011 -0.1837
3370 178 3 40.6377 14.9313 11.9308 12.011 -0.23415
3371 178 1 41.5066 15.2641 12.4804 1.008 0.12909
3372 178 1 39.929 15.6821 11.6155 1.008 0.12909
3373 178 1 39.548 13.3581 11.0905 1.008 0.15086
3374 178 1 42.1862 12.929 12.6193 1.008 0.07222
3375 178 1 40.8417 11.7845 12.6349 1.008 0.07222
3376 178 1 42.1977 10.0185 11.5003 1.008 0.09202
3377 178 1 42.9291 10.4481 9.96699 1.008 0.09202
3378 178 1 43.8292 11.511 12.6958 1.008 0.10167
3379 178 1 44.4976 12.0327 11.1531 1.008 0.10167
3380 178 1 45.7065 10.2147 12.5651 1.008 0.08773
3381 178 1 44.5179 9.08572 11.9295 1.008 0.08773
3382 178 1 45.5968 9.95478 10.818 1.008 0.08773
3383 179 4 46.3365 41.8107 35.8559 15.999 -0.35515
3384 179 2 45.2466 41.209 36.532 12.011 0.03297
3385 179 2 46.9541 40.9138 34.9419 12.011 0.01762
3386 179 2 47.6868 39.77 35.6736 12.011 -0.23743
3387 179 2 48.5157 38.887 34.7385 12.011 -0.24423
3388 179 3 44.4621 42.1779 37.3811 12.011 -0.1837
3389 179 3 44.3896 42.1131 38.7165 12.011 -0.23415
3390 179 1 44.9381 41.3735 39.2766 1.008 0.12909
3391 179 1 43.7994 42.8178 39.2826 1.008 0.12909
3392 179 1 43.9184 42.9491 36.8658 1.008 0.15086
3393 179 1 45.6111 40.4277 37.1917 1.008 0.07222
3394 179 1 44.5583 40.7679 35.8137 1.008 0.07222
3395 179 1 46.2139 40.5169 34.2454 1.008 0.09202
3396 179 1 47.6702 41.4847 34.3489 1.008 0.09202
3397 179 1 46.9811 39.1146 36.1802 1.008 0.10167
3398 179 1 48.3439 40.1744 36.4449 1.008 0.10167
3399 179 1 48.7833 37.9542 35.2422 1.008 0.08773
3400 179 1 47.9614 38.6293 33.8355 1.008 0.08773
3401 179 1 49.4432 39.3829 34.4441 1.008 0.08773
3402 180 4 43.4353 15.1104 45.8609 15.999 -0.35515
3403 180 2 42.4194 16.0866 45.7001 12.011 0.03297
3404 180 2 43.0555 14.0628 46.7413 12.011 0.01762
3405 180 2 43.0045 14.5645 48.1944 12.011 -0.23743
3406 180 2 42.8179 13.4454 49.2213 12.011 -0.24423
3407 180 3 42.7936 17.0232 44.5764 12.011 -0.1837
3408 180 3 43.1051 18.3135 44.7417 12.011 -0.23415
3409 180 1 43.1181 18.7604 45.7186 1.008 0.12909
3410 180 1 43.3465 18.9474 43.9029 1.008 0.12909
3411 180 1 42.7879 16.6126 43.5804 1.008 0.15086
3412 180 1 42.2923 16.6606 46.6154 1.008 0.07222
3413 180 1 41.4653 15.6204 45.457 1.008 0.07222
3414 180 1 42.0977 13.6343 46.4419 1.008 0.09202
3415 180 1 43.7973 13.2677 46.6573 1.008 0.09202
3416 180 1 42.1837 15.2673 48.3271 1.008 0.10167
3417 180 1 43.925 15.0974 48.4349 1.008 0.10167
3418 180 1 42.5279 13.8645 50.1882 1.008 0.08773
3419 180 1 42.0384 12.7459 48.9203 1.008 0.08773
3420 180 1 43.7429 12.8854 49.3724 1.008 0.08773
3421 181 4 38.1656 18.5911 28.2407 15.999 -0.35515
3422 181 2 37.0258 19.3388 27.8482 12.011 0.03297
3423 181 2 37.8522 17.3909 28.9339 12.011 0.01762
3424 181 2 37.2215 17.6844 30.3044 12.011 -0.23743
3425 181 2 37.0248 16.4295 31.1579 12.011 -0.24423
3426 181 3 37.4599 20.4668 26.9447 12.011 -0.1837
3427 181 3 37.3335 21.7626 27.2549 12.011 -0.23415
3428 181 1 36.914 22.08 28.1957 1.008 0.12909
3429 181 1 37.6465 22.5331 26.5685 1.008 0.12909
3430 181 1 37.8869 20.1964 25.9918 1.008 0.15086
3431 181 1 36.5257 19.7595 28.7168 1.008 0.07222
3432 181 1 36.3056 18.7195 27.3166 1.008 0.07222
3433 181 1 37.1916 16.7577 28.3413 1.008 0.09202
3434 181 1 38.7814 16.8355 29.0717 1.008 0.09202
3435 181 1 36.2436 18.1473 30.185 1.008 0.10167
3436 181 1 37.8432 18.3876 30.8592 1.008 0.10167
3437 181 1 36.3446 16.6397 31.987 1.008 0.08773
3438 181 1 36.5942 15.6135 30.5779 1.008 0.08773
3439 181 1 37.9689 16.0862 31.5844 1.008 0.08773
3440 182 4 16.3369 7.35071 39.6922 15.999 -0.35515
3441 182 2 16.0682 6.70746 38.4571 12.011 0.03297
3442 182 2 17.3726 8.31828 39.5982 12.011 0.01762
3443 182 2 18.7383 7.64199 39.3889 12.011 -0.23743
3444 182 2 19.9197 8.61064 39.4757 12.011 -0.24423
3445 182 3 14.8309 5.85318 38.5991 12.011 -0.1837
3446 182 3 14.8285 4.51583 38.5516 12.011 -0.23415
3447 182 1 15.7381 3.95464 38.4183 1.008 0.12909
3448 182 1 13.9085 3.95932 38.6468 1.008 0.12909
3449 182 1 13.8969 6.37212 38.7396 1.008 0.15086
3450 182 1 16.9005 6.07235 38.1649 1.008 0.07222
3451 182 1 15.9041 7.4376 37.665 1.008 0.07222
3452 182 1 17.1632 9.02821 38.7965 1.008 0.09202
3453 182 1 17.3885 8.88577 40.5299 1.008 0.09202
3454 182 1 18.7832 7.16844 38.4095 1.008 0.10167
3455 182 1 18.8822 6.85558 40.1304 1.008 0.10167
3456 182 1 20.8167 8.15223 39.0524 1.008 0.08773
3457 182 1 19.7302 9.52653 38.9188 1.008 0.08773
3458 182 1 20.1499 8.87919 40.5088 1.008 0.08773
3459 183 4 13.3634 24.346 31.3428 15.999 -0.35515
3460 183 2 12.9292 24.5497 32.6734 12.011 0.03297
3461 183 2 13.9602 25.503 30.7767 12.011 0.01762
3462 183 2 12.9379 26.6401 30.5754 12.011 -0.23743
3463 183 2 13.5069 27.8146 29.7728 12.011 -0.24423
3464 183 3 12.4056 23.2667 33.2801 12.011 -0.1837
3465 183 3 11.1752 23.1262 33.7897 12.011 -0.23415
3466 183 1 10.4644 23.934 33.7897 1.008 0.12909
3467 183 1 10.8495 22.1876 34.2061 1.008 0.12909
3468 183 1 13.0824 22.4237 33.3008 1.008 0.15086
3469 183 1 12.1199 25.2694 32.6769 1.008 0.07222
3470 183 1 13.7399 24.9317 33.2902 1.008 0.07222
3471 183 1 14.7955 25.8395 31.3952 1.008 0.09202
3472 183 1 14.3743 25.2153 29.8075 1.008 0.09202
3473 183 1 12.6068 27.0403 31.5335 1.008 0.10167
3474 183 1 12.0575 26.2646 30.0548 1.008 0.10167
3475 183 1 12.8762 28.699 29.8959 1.008 0.08773
3476 183 1 14.5109 28.0798 30.1072 1.008 0.08773
3477 183 1 13.5491 27.5834 28.706 1.008 0.08773
3478 184 4 17.7596 41.9005 3.49794 15.999 -0.35515
3479 184 2 18.2942 42.5337 4.65115 12.011 0.03297
3480 184 2 17.5964 40.497 3.66243 12.011 0.01762
3481 184 2 18.9436 39.7796 3.84514 12.011 -0.23743
3482 184 2 18.8147 38.2544 3.83818 12.011 -0.24423
3483 184 3 18.1937 44.0362 4.53386 12.011 -0.1837
3484 184 3 19.2475 44.8609 4.50304 12.011 -0.23415
3485 184 1 20.2573 44.4859 4.54162 1.008 0.12909
3486 184 1 19.1149 45.9302 4.44622 1.008 0.12909
3487 184 1 17.2014 44.4584 4.50552 1.008 0.15086
3488 184 1 19.3402 42.2651 4.7779 1.008 0.07222
3489 184 1 17.7566 42.23 5.54617 1.008 0.07222
3490 184 1 16.9528 40.2762 4.51187 1.008 0.09202
3491 184 1 17.0871 40.1111 2.7784 1.008 0.09202
3492 184 1 19.3918 40.0561 4.79866 1.008 0.10167
3493 184 1 19.6414 40.0796 3.06298 1.008 0.10167
3494 184 1 19.7284 37.7965 4.22626 1.008 0.08773
3495 184 1 17.9894 37.9197 4.46761 1.008 0.08773
3496 184 1 18.6542 37.871 2.82854 1.008 0.08773
3497 185 4 42.597 28.5409 38.8424 15.999 -0.35515
3498 185 2 43.3329 27.6698 38.0092 12.011 0.03297
3499 185 2 41.3308 28.0364 39.2065 12.011 0.01762
3500 185 2 40.3784 28.0017 38.0027 12.011 -0.23743
3501 185 2 38.9414 27.6903 38.4141 12.011 -0.24423
3502 185 3 44.7185 28.2397 37.8563 12.011 -0.1837
3503 185 3 45.2348 28.627 36.6876 12.011 -0.23415
3504 185 1 44.6711 28.5449 35.7744 1.008 0.12909
3505 185 1 46.2293 29.0349 36.6208 1.008 0.12909
3506 185 1 45.3141 28.3422 38.7485 1.008 0.15086
3507 185 1 42.8748 27.5927 37.0249 1.008 0.07222
3508 185 1 43.3978 26.6744 38.4463 1.008 0.07222
3509 185 1 41.4312 27.0521 39.6656 1.008 0.09202
3510 185 1 40.9279 28.7061 39.9619 1.008 0.09202
3511 185 1 40.6969 27.2451 37.2873 1.008 0.10167
3512 185 1 40.3861 28.9577 37.4801 1.008 0.10167
3513 185 1 38.3397 27.4266 37.5407 1.008 0.08773
3514 185 1 38.9114 26.8496 39.106 1.008 0.08773
3515 185 1 38.4695 28.5442 38.9027 1.008 0.08773
3516 186 4 8.2816 39.6184 34.6586 15.999 -0.35515
3517 186 2 8.53646 40.4036 33.5068 12.011 0.03297
3518 186 2 8.92904 38.3572 34.568 12.011 0.01762
3519 186 2 8.25824 37.4696 33.5056 12.011 -0.23743
3520 186 2 8.71069 36.0035 33.5453 12.011 -0.24423
3521 186 3 8.19349 41.8645 33.6958 12.011 -0.1837
3522 186 3 7.21549 42.498 33.0413 12.011 -0.23415
3523 186 1 6.57124 41.9691 32.3581 1.008 0.12909
3524 186 1 7.0629 43.5578 33.1688 1.008 0.12909
3525 186 1 8.84205 42.4312 34.3468 1.008 0.15086
3526 186 1 7.96654 40.0167 32.6641 1.008 0.07222
3527 186 1 9.59728 40.3631 33.2586 1.008 0.07222
3528 186 1 9.98455 38.4867 34.3266 1.008 0.09202
3529 186 1 8.89323 37.8685 35.5434 1.008 0.09202
3530 186 1 8.48921 37.8498 32.5118 1.008 0.10167
3531 186 1 7.17556 37.4983 33.6216 1.008 0.10167
3532 186 1 8.3878 35.4862 32.6373 1.008 0.08773
3533 186 1 9.79721 35.9093 33.5978 1.008 0.08773
3534 186 1 8.2769 35.4734 34.3951 1.008 0.08773
3535 187 4 14.5309 42.1215 25.2757 15.999 -0.35515
3536 187 2 13.816 42.5896 24.148 12.011 0.03297
3537 187 2 13.9741 40.9371 25.8098 12.011 0.01762
3538 187 2 12.6247 41.25 26.4626 12.011 -0.23743
3539 187 2 12.0427 40.0376 27.1585 12.011 -0.24423
3540 187 3 14.6025 43.7241 23.5554 12.011 -0.1837
3541 187 3 14.2092 45.0008 23.5805 12.011 -0.23415
3542 187 1 13.2801 45.3048 24.0347 1.008 0.12909
3543 187 1 14.829 45.7656 23.147 1.008 0.12909
3544 187 1 15.545 43.47 23.0985 1.008 0.15086
3545 187 1 12.8326 42.9618 24.4273 1.008 0.07222
3546 187 1 13.6909 41.8036 23.4031 1.008 0.07222
3547 187 1 13.8652 40.1726 25.0388 1.008 0.09202
3548 187 1 14.6596 40.5417 26.5617 1.008 0.09202
3549 187 1 11.8833 41.564 25.7305 1.008 0.10167
3550 187 1 12.7285 42.06 27.186 1.008 0.10167
3551 187 1 11.0159 40.2678 27.4344 1.008 0.08773
3552 187 1 12.0142 39.1709 26.5024 1.008 0.08773
3553 187 1 12.6134 39.7848 28.0546 1.008 0.08773
3554 188 4 23.8534 39.2895 43.346 15.999 -0.35515
3555 188 2 24.8223 39.4082 42.3216 12.011 0.03297
3556 188 2 23.0878 40.4658 43.5405 12.011 0.01762
3557 188 2 23.9456 41.5656 44.1868 12.011 -0.23743
3558 188 2 23.1421 42.7969 44.6096 12.011 -0.24423
3559 188 3 25.4356 38.0523 42.084 12.011 -0.1837
3560 188 3 26.7217 37.7741 42.3127 12.011 -0.23415
3561 188 1 27.3875 38.5255 42.6995 1.008 0.12909
3562 188 1 27.1362 36.795 42.1203 1.008 0.12909
3563 188 1 24.7918 37.2767 41.7028 1.008 0.15086
3564 188 1 25.6108 40.0999 42.6122 1.008 0.07222
3565 188 1 24.3758 39.7651 41.3937 1.008 0.07222
3566 188 1 22.6535 40.803 42.5984 1.008 0.09202
3567 188 1 22.258 40.2156 44.2025 1.008 0.09202
3568 188 1 24.7206 41.9007 43.4994 1.008 0.10167
3569 188 1 24.4481 41.1653 45.0674 1.008 0.10167
3570 188 1 23.8085 43.6482 44.7754 1.008 0.08773
3571 188 1 22.4198 43.0904 43.8482 1.008 0.08773
3572 188 1 22.6049 42.622 45.5441 1.008 0.08773
3573 189 4 39.5176 20.7345 20.8876 15.999 -0.35515
3574 189 2 39.3539 20.9152 19.492 12.011 0.03297
3575 189 2 38.2829 20.6159 21.5717 12.011 0.01762
3576 189 2 37.5598 21.9707 21.5674 12.011 -0.23743
3577 189 2 36.3178 21.9848 22.4476 12.011 -0.24423
3578 189 3 40.7079 20.8362 18.8366 12.011 -0.1837
3579 189 3 41.3246 21.8743 18.2612 12.011 -0.23415
3580 189 1 40.881 22.8568 18.239 1.008 0.12909
3581 189 1 42.2964 21.7551 17.8086 1.008 0.12909
3582 189 1 41.1952 19.8743 18.8479 1.008 0.15086
3583 189 1 38.9236 21.889 19.271 1.008 0.07222
3584 189 1 38.7043 20.1475 19.0719 1.008 0.07222
3585 189 1 37.6628 19.8364 21.1237 1.008 0.09202
3586 189 1 38.4904 20.3123 22.5997 1.008 0.09202
3587 189 1 37.2309 22.2317 20.5636 1.008 0.10167
3588 189 1 38.236 22.7586 21.9036 1.008 0.10167
3589 189 1 35.712 22.8667 22.2265 1.008 0.08773
3590 189 1 35.7033 21.104 22.2645 1.008 0.08773
3591 189 1 36.5747 22.0157 23.5076 1.008 0.08773
3592 190 4 25.2322 19.1952 6.58855 15.999 -0.35515
3593 190 2 24.9254 17.8483 6.27243 12.011 0.03297
3594 190 2 26.432 19.6725 5.99108 12.011 0.01762
3595 190 2 27.6694 19.0128 6.62806 12.011 -0.23743
3596 190 2 29.0142 19.5814 6.16224 12.011 -0.24423
3597 190 3 23.5288 17.5505 6.76891 12.011 -0.1837
3598 190 3 23.2184 16.6176 7.678 12.011 -0.23415
3599 190 1 23.9702 16 8.14184 1.008 0.12909
3600 190 1 22.1941 16.4568 7.975 1.008 0.12909
3601 190 1 22.7352 18.1386 6.33889 1.008 0.15086
3602 190 1 25.6335 17.1663 6.73915 1.008 0.07222
3603 190 1 24.9618 17.6882 5.19585 1.008 0.07222
3604 190 1 26.4142 19.5257 4.90988 1.008 0.09202
3605 190 1 26.4751 20.7485 6.16601 1.008 0.09202
3606 190 1 27.6803 17.9438 6.42513 1.008 0.10167
3607 190 1 27.6244 19.1341 7.70871 1.008 0.10167
3608 190 1 29.8223 18.8962 6.43175 1.008 0.08773
3609 190 1 29.0498 19.7196 5.08208 1.008 0.08773
3610 190 1 29.2295 20.5398 6.64004 1.008 0.08773
3611 191 4 24.2089 45.646 47.3337 15.999 -0.35515
3612 191 2 23.8954 46.8844 46.7229 12.011 0.03297
3613 191 2 25.1715 45.7686 48.3654 12.011 0.01762
3614 191 2 26.5538 46.066 47.7644 12.011 -0.23743
3615 191 2 27.6839 46.018 48.7912 12.011 -0.24423
3616 191 3 22.751 46.6506 45.7743 12.011 -0.1837
3617 191 3 22.8745 46.6299 44.4441 12.011 -0.23415
3618 191 1 23.8226 46.7873 43.9578 1.008 0.12909
3619 191 1 22.0131 46.4587 43.8208 1.008 0.12909
3620 191 1 21.7794 46.4884 46.2142 1.008 0.15086
3621 191 1 24.7411 47.2678 46.1563 1.008 0.07222
3622 191 1 23.6069 47.6343 47.4599 1.008 0.07222
3623 191 1 24.877 46.5387 49.0803 1.008 0.09202
3624 191 1 25.2025 44.8225 48.9074 1.008 0.09202
3625 191 1 26.5725 47.0556 47.3124 1.008 0.10167
3626 191 1 26.7733 45.3512 46.9714 1.008 0.10167
3627 191 1 28.58 46.4938 48.3858 1.008 0.08773
3628 191 1 27.4145 46.5452 49.7059 1.008 0.08773
3629 191 1 27.9422 44.9896 49.05 1.008 0.08773
3630 192 4 24.5458 38.0059 33.5181 15.999 -0.35515
3631 192 2 23.4266 37.9572 34.3818 12.011 0.03297
3632 192 2 25.0975 36.7295 33.2563 12.011 0.01762
3633 192 2 25.8176 36.1728 34.4959 12.011 -0.23743
3634 192 2 26.5662 34.8537 34.2818 12.011 -0.24423
3635 192 3 22.7978 39.326 34.4099 12.011 -0.1837
3636 192 3 22.8476 40.1493 35.4625 12.011 -0.23415
3637 192 1 23.3574 39.8717 36.37 1.008 0.12909
3638 192 1 22.381 41.1208 35.4311 1.008 0.12909
3639 192 1 22.2884 39.6452 33.5141 1.008 0.15086
3640 192 1 23.7318 37.6889 35.3905 1.008 0.07222
3641 192 1 22.6906 37.229 34.0413 1.008 0.07222
3642 192 1 24.323 36.0439 32.9063 1.008 0.09202
3643 192 1 25.8158 36.8701 32.4495 1.008 0.09202
3644 192 1 25.1023 35.9936 35.2951 1.008 0.10167
3645 192 1 26.5346 36.9111 34.8549 1.008 0.10167
3646 192 1 26.8147 34.4034 35.2457 1.008 0.08773
3647 192 1 25.9714 34.1262 33.7285 1.008 0.08773
3648 192 1 27.5114 35.0101 33.7602 1.008 0.08773
3649 193 4 4.2545 37.9607 9.39026 15.999 -0.35515
3650 193 2 4.15672 36.5894 9.7072 12.011 0.03297
3651 193 2 3.05309 38.6617 9.67983 12.011 0.01762
3652 193 2 1.97004 38.3956 8.62198 12.011 -0.23743
3653 193 2 0.822527 39.4128 8.68736 12.011 -0.24423
3654 193 3 5.51216 35.9187 9.67823 12.011 -0.1837
3655 193 3 5.83683 34.8833 8.90006 12.011 -0.23415
3656 193 1 5.13295 34.4682 8.19354 1.008 0.12909
3657 193 1 6.80756 34.4148 8.97307 1.008 0.12909
3658 193 1 6.23802 36.2669 10.3792 1.008 0.15086
3659 193 1 3.48775 36.1147 8.99765 1.008 0.07222
3660 193 1 3.73814 36.4664 10.7069 1.008 0.07222
3661 193 1 2.67708 38.4083 10.6688 1.008 0.09202
3662 193 1 3.27344 39.7281 9.71209 1.008 0.09202
3663 193 1 1.55219 37.3988 8.75551 1.008 0.10167
3664 193 1 2.39312 38.4309 7.6195 1.008 0.10167
3665 193 1 -0.0373102 39.0797 8.09931 1.008 0.08773
3666 193 1 0.483267 39.5639 9.71134 1.008 0.08773
3667 193 1 1.13481 40.3796 8.29239 1.008 0.08773
3668 194 4 34.634 4.58325 45.2439 15.999 -0.35515
3669 194 2 34.2249 5.88749 44.862 12.011 0.03297
3670 194 2 35.3129 4.53381 46.4916 12.011 0.01762
3671 194 2 36.6973 5.20225 46.4084 12.011 -0.23743
3672 194 2 37.5301 5.04535 47.6839 12.011 -0.24423
3673 194 3 33.4123 5.79524 43.5907 12.011 -0.1837
3674 194 3 33.8076 6.26783 42.4022 12.011 -0.23415
3675 194 1 34.766 6.74381 42.2714 1.008 0.12909
3676 194 1 33.1815 6.17407 41.5286 1.008 0.12909
3677 194 1 32.451 5.31328 43.6674 1.008 0.15086
3678 194 1 35.0871 6.5222 44.6727 1.008 0.07222
3679 194 1 33.6215 6.35184 45.6413 1.008 0.07222
3680 194 1 34.7065 4.98524 47.2781 1.008 0.09202
3681 194 1 35.4401 3.48283 46.7559 1.008 0.09202
3682 194 1 36.5979 6.26961 46.2202 1.008 0.10167
3683 194 1 37.2647 4.78486 45.5765 1.008 0.10167
3684 194 1 38.348 5.77044 47.6897 1.008 0.08773
3685 194 1 36.9356 5.21974 48.5812 1.008 0.08773
3686 194 1 37.9735 4.0499 47.753 1.008 0.08773
3687 195 4 23.6655 20.002 2.17947 15.999 -0.35515
3688 195 2 22.8416 20.4793 1.13303 12.011 0.03297
3689 195 2 23.497 18.6136 2.42611 12.011 0.01762
3690 195 2 22.1312 18.3359 3.08253 12.011 -0.23743
3691 195 2 21.9302 16.8692 3.47139 12.011 -0.24423
3692 195 3 23.2729 21.8787 0.741339 12.011 -0.1837
3693 195 3 22.4504 22.9378 0.712549 12.011 -0.23415
3694 195 1 21.4204 22.8628 0.99661 1.008 0.12909
3695 195 1 22.8166 23.9156 0.427468 1.008 0.12909
3696 195 1 24.309 22.0115 0.470167 1.008 0.15086
3697 195 1 21.8039 20.5053 1.42825 1.008 0.07222
3698 195 1 22.9294 19.853 0.251923 1.008 0.07222
3699 195 1 23.6198 18.0382 1.50323 1.008 0.09202
3700 195 1 24.2983 18.3016 3.0994 1.008 0.09202
3701 195 1 21.3248 18.5996 2.39934 1.008 0.10167
3702 195 1 22.0247 18.9587 3.97191 1.008 0.10167
3703 195 1 20.869 16.6705 3.62011 1.008 0.08773
3704 195 1 22.2829 16.1915 2.69338 1.008 0.08773
3705 195 1 22.4432 16.6231 4.40163 1.008 0.08773
3706 196 4 37.5719 14.164 37.9073 15.999 -0.35515
3707 196 2 37.1766 12.8861 37.4456 12.011 0.03297
3708 196 2 37.7217 15.0877 36.8411 12.011 0.01762
3709 196 2 38.9812 14.763 36.0236 12.011 -0.23743
3710 196 2 39.3526 15.8292 34.9949 12.011 -0.24423
3711 196 3 36.7894 12.0236 38.6176 12.011 -0.1837
3712 196 3 37.4955 10.9696 39.0403 12.011 -0.23415
3713 196 1 38.4187 10.69 38.5642 1.008 0.12909
3714 196 1 37.1599 10.3666 39.8687 1.008 0.12909
3715 196 1 35.8734 12.282 39.1223 1.008 0.15086
3716 196 1 37.9955 12.4121 36.9138 1.008 0.07222
3717 196 1 36.3247 12.9548 36.7689 1.008 0.07222
3718 196 1 36.838 15.0709 36.2039 1.008 0.09202
3719 196 1 37.8005 16.0923 37.2623 1.008 0.09202
3720 196 1 38.8654 13.8223 35.4894 1.008 0.10167
3721 196 1 39.8273 14.6488 36.6987 1.008 0.10167
3722 196 1 40.0685 15.425 34.2749 1.008 0.08773
3723 196 1 38.4859 16.1936 34.4438 1.008 0.08773
3724 196 1 39.8314 16.6725 35.4901 1.008 0.08773
3725 197 4 31.315 29.19 2.53206 15.999 -0.35515
3726 197 2 31.631 30.1763 1.56421 12.011 0.03297
3727 197 2 32.1268 28.0321 2.42414 12.011 0.01762
3728 197 2 31.7648 27.2441 1.15416 12.011 -0.23743
3729 197 2 32.4802 25.9008 1.06048 12.011 -0.24423
3730 197 3 30.8531 31.4308 1.87087 12.011 -0.1837
3731 197 3 29.8699 31.9137 1.10245 12.011 -0.23415
3732 197 1 29.5614 31.4147 0.198788 1.008 0.12909
3733 197 1 29.356 32.8242 1.36731 1.008 0.12909
3734 197 1 31.1259 31.9616 2.76903 1.008 0.15086
3735 197 1 31.3648 29.8412 0.564424 1.008 0.07222
3736 197 1 32.6963 30.4063 1.57445 1.008 0.07222
3737 197 1 33.1853 28.2996 2.43371 1.008 0.09202
3738 197 1 31.9468 27.4095 3.30228 1.008 0.09202
3739 197 1 32.038 27.8051 0.26203 1.008 0.10167
3740 197 1 30.6896 27.0707 1.11015 1.008 0.10167
3741 197 1 32.4157 25.5005 0.045632 1.008 0.08773
3742 197 1 33.5318 26.0246 1.29602 1.008 0.08773
3743 197 1 32.0548 25.164 1.74399 1.008 0.08773
3744 198 4 49.359 30.0788 27.1315 15.999 -0.35515
3745 198 2 48.1718 29.4142 26.7351 12.011 0.03297
3746 198 2 49.6674 31.1904 26.3018 12.011 0.01762
3747 198 2 50.1034 30.7124 24.9069 12.011 -0.23743
3748 198 2 50.6605 31.8299 24.0244 12.011 -0.24423
3749 198 3 47.7821 28.4031 27.7826 12.011 -0.1837
3750 198 3 47.8018 27.078 27.5942 12.011 -0.23415
3751 198 1 48.1227 26.6478 26.6594 1.008 0.12909
3752 198 1 47.4946 26.3978 28.3729 1.008 0.12909
3753 198 1 47.4549 28.7998 28.7297 1.008 0.15086
3754 198 1 48.3114 28.9015 25.7861 1.008 0.07222
3755 198 1 47.3535 30.1216 26.6238 1.008 0.07222
3756 198 1 48.8214 31.8775 26.2314 1.008 0.09202
3757 198 1 50.4832 31.7439 26.7684 1.008 0.09202
3758 198 1 49.2634 30.2727 24.3716 1.008 0.10167
3759 198 1 50.8641 29.9369 25.0014 1.008 0.10167
3760 198 1 50.7038 31.5004 22.9837 1.008 0.08773
3761 198 1 50.0335 32.7215 24.059 1.008 0.08773
3762 198 1 51.6731 32.1077 24.3234 1.008 0.08773
3763 199 4 23.1565 17.2749 21.2417 15.999 -0.35515
3764 199 2 23.4388 15.897 21.3877 12.011 0.03297
3765 199 2 21.786 17.5299 20.9896 12.011 0.01762
3766 199 2 21.4274 17.2695 19.522 12.011 -0.23743
3767 199 2 19.9844 17.6694 19.2069 12.011 -0.24423
3768 199 3 24.8193 15.7855 21.9834 12.011 -0.1837
3769 199 3 25.8935 15.3472 21.3191 12.011 -0.23415
3770 199 1 25.829 15.0432 20.2868 1.008 0.12909
3771 199 1 26.8592 15.2972 21.7979 1.008 0.12909
3772 199 1 24.9232 16.0979 23.0104 1.008 0.15086
3773 199 1 23.3917 15.3954 20.4238 1.008 0.07222
3774 199 1 22.7328 15.4049 22.0551 1.008 0.07222
3775 199 1 21.1534 16.9323 21.6462 1.008 0.09202
3776 199 1 21.588 18.575 21.2306 1.008 0.09202
3777 199 1 21.5557 16.2145 19.2855 1.008 0.10167
3778 199 1 22.0909 17.8335 18.8647 1.008 0.10167
3779 199 1 19.6568 17.2242 18.2636 1.008 0.08773
3780 199 1 19.3051 17.3375 19.9919 1.008 0.08773
3781 199 1 19.898 18.7541 19.1154 1.008 0.08773
3782 200 4 21.1953 18.1341 23.8265 15.999 -0.35515
3783 200 2 20.2385 18.9964 24.4079 12.011 0.03297
3784 200 2 21.4848 16.9875 24.5921 12.011 0.01762
3785 200 2 22.2438 17.3631 25.8635 12.011 -0.23743
3786 200 2 22.6378 16.1269 26.6511 12.011 -0.24423
3787 200 3 20.0483 20.0789 23.3817 12.011 -0.1837
3788 200 3 20.6367 21.276 23.4632 12.011 -0.23415
3789 200 1 21.2657 21.54 24.296 1.008 0.12909
3790 200 1 20.5462 22.0001 22.6716 1.008 0.12909
3791 200 1 19.4584 19.842 22.5142 1.008 0.15086
3792 200 1 20.6128 19.4518 25.3263 1.008 0.07222
3793 200 1 19.2957 18.4853 24.6234 1.008 0.07222
3794 200 1 20.5742 16.4307 24.8176 1.008 0.09202
3795 200 1 22.1271 16.3467 23.9918 1.008 0.09202
3796 200 1 21.6304 17.9731 26.5213 1.008 0.10167
3797 200 1 23.1484 17.9251 25.6252 1.008 0.10167
3798 200 1 22.6224 16.3485 27.7175 1.008 0.08773
3799 200 1 21.926 15.3193 26.4817 1.008 0.08773
3800 200 1 23.6374 15.7785 26.3822 1.008 0.08773
3801 201 4 21.489 46.9383 10.2469 15.999 -0.35515
3802 201 2 22.1089 48.1922 10.021 12.011 0.03297
3803 201 2 22.2645 45.8227 9.87713 12.011 0.01762
3804 201 2 22.3517 45.7374 8.34801 12.011 -0.23743
3805 201 2 23.029 44.4592 7.85953 12.011 -0.24423
3806 201 3 21.0933 49.184 10.5214 12.011 -0.1837
3807 201 3 20.2901 49.8785 9.71411 12.011 -0.23415
3808 201 1 20.3439 49.7933 8.65145 1.008 0.12909
3809 201 1 19.5409 50.5279 10.1232 1.008 0.12909
3810 201 1 20.9978 49.2669 11.589 1.008 0.15086
3811 201 1 22.3 48.3681 8.96447 1.008 0.07222
3812 201 1 23.0532 48.2933 10.5632 1.008 0.07222
3813 201 1 23.2444 45.877 10.3433 1.008 0.09202
3814 201 1 21.769 44.9328 10.2658 1.008 0.09202
3815 201 1 22.9155 46.5726 7.93906 1.008 0.10167
3816 201 1 21.3506 45.7877 7.91737 1.008 0.10167
3817 201 1 23.3152 44.56 6.80742 1.008 0.08773
3818 201 1 23.9342 44.2447 8.43016 1.008 0.08773
3819 201 1 22.3599 43.5975 7.94171 1.008 0.08773
3820 202 4 31.7841 19.075 36.2704 15.999 -0.35515
3821 202 2 31.416 18.2288 35.1934 12.011 0.03297
3822 202 2 30.6736 19.7903 36.7898 12.011 0.01762
3823 202 2 30.2472 20.8954 35.8077 12.011 -0.23743
3824 202 2 29.1893 21.8505 36.364 12.011 -0.24423
3825 202 3 32.5688 17.3296 34.8264 12.011 -0.1837
3826 202 3 33.2769 17.4232 33.6946 12.011 -0.23415
3827 202 1 33.0674 18.1803 32.9578 1.008 0.12909
3828 202 1 34.0896 16.7441 33.4887 1.008 0.12909
3829 202 1 32.8237 16.5653 35.5413 1.008 0.15086
3830 202 1 31.1397 18.8126 34.3194 1.008 0.07222
3831 202 1 30.5672 17.6039 35.4689 1.008 0.07222
3832 202 1 29.846 19.1114 37.0018 1.008 0.09202
3833 202 1 30.9628 20.23 37.7436 1.008 0.09202
3834 202 1 29.8298 20.4526 34.9053 1.008 0.10167
3835 202 1 31.116 21.4793 35.5009 1.008 0.10167
3836 202 1 28.6858 22.3673 35.5434 1.008 0.08773
3837 202 1 28.4258 21.3229 36.9357 1.008 0.08773
3838 202 1 29.6309 22.6151 37.0046 1.008 0.08773
3839 203 4 45.9358 42.1407 18.3168 15.999 -0.35515
3840 203 2 46.6876 43.2884 17.958 12.011 0.03297
3841 203 2 46.5724 40.9334 17.9272 12.011 0.01762
3842 203 2 46.5101 40.7633 16.4012 12.011 -0.23743
3843 203 2 46.9797 39.39 15.9226 12.011 -0.24423
3844 203 3 46.0724 44.5153 18.5842 12.011 -0.1837
3845 203 3 45.4649 45.4879 17.895 12.011 -0.23415
3846 203 1 45.3606 45.4425 16.8234 1.008 0.12909
3847 203 1 45.0652 46.3567 18.3945 1.008 0.12909
3848 203 1 46.1556 44.6035 19.6548 1.008 0.15086
3849 203 1 46.6998 43.4194 16.8789 1.008 0.07222
3850 203 1 47.7183 43.2012 18.3016 1.008 0.07222
3851 203 1 47.6033 40.9063 18.2843 1.008 0.09202
3852 203 1 46.0505 40.1025 18.4016 1.008 0.09202
3853 203 1 47.1333 41.5071 15.907 1.008 0.10167
3854 203 1 45.4889 40.9182 16.0545 1.008 0.10167
3855 203 1 47.1807 39.4183 14.8502 1.008 0.08773
3856 203 1 47.9003 39.0845 16.4194 1.008 0.08773
3857 203 1 46.2234 38.623 16.0989 1.008 0.08773
3858 204 4 7.49017 24.5128 21.3298 15.999 -0.35515
3859 204 2 6.70925 24.6349 20.153 12.011 0.03297
3860 204 2 8.75211 25.1522 21.2231 12.011 0.01762
3861 204 2 9.66752 24.3809 20.2577 12.011 -0.23743
3862 204 2 11.1084 24.8947 20.2404 12.011 -0.24423
3863 204 3 5.31866 24.1185 20.4255 12.011 -0.1837
3864 204 3 4.81976 22.9956 19.8969 12.011 -0.23415
3865 204 1 5.411 22.3771 19.2431 1.008 0.12909
3866 204 1 3.81636 22.6686 20.1197 1.008 0.12909
3867 204 1 4.70471 24.7048 21.0897 1.008 0.15086
3868 204 1 7.1423 24.0535 19.3428 1.008 0.07222
3869 204 1 6.64492 25.6741 19.8316 1.008 0.07222
3870 204 1 8.63185 26.1898 20.9068 1.008 0.09202
3871 204 1 9.20264 25.1725 22.2164 1.008 0.09202
3872 204 1 9.29081 24.4465 19.2385 1.008 0.10167
3873 204 1 9.68088 23.3247 20.5281 1.008 0.10167
3874 204 1 11.6364 24.5052 19.367 1.008 0.08773
3875 204 1 11.1476 25.9827 20.1884 1.008 0.08773
3876 204 1 11.6575 24.5765 21.1286 1.008 0.08773
3877 205 4 49.8474 47.4512 19.8357 15.999 -0.35515
3878 205 2 48.926 48.1107 18.9832 12.011 0.03297
3879 205 2 49.9057 48.023 21.1336 12.011 0.01762
3880 205 2 50.567 49.4113 21.0869 12.011 -0.23743
3881 205 2 50.8411 50.0053 22.47 12.011 -0.24423
3882 205 3 48.7805 47.3278 17.7021 12.011 -0.1837
3883 205 3 49.191 47.7607 16.5044 12.011 -0.23415
3884 205 1 49.6768 48.7156 16.3867 1.008 0.12909
3885 205 1 49.0465 47.1639 15.6178 1.008 0.12909
3886 205 1 48.3013 46.3657 17.7761 1.008 0.15086
3887 205 1 49.2736 49.1116 18.7383 1.008 0.07222
3888 205 1 47.9486 48.195 19.4577 1.008 0.07222
3889 205 1 48.9087 48.0787 21.5733 1.008 0.09202
3890 205 1 50.4967 47.3585 21.766 1.008 0.09202
3891 205 1 49.9352 50.1211 20.5551 1.008 0.10167
3892 205 1 51.5104 49.3537 20.5428 1.008 0.10167
3893 205 1 51.0535 51.0741 22.3851 1.008 0.08773
3894 205 1 49.9835 49.8944 23.1334 1.008 0.08773
3895 205 1 51.7049 49.5337 22.9421 1.008 0.08773
3896 206 4 45.9336 16.204 21.1855 15.999 -0.35515
3897 206 2 44.9304 16.1366 22.188 12.011 0.03297
3898 206 2 45.6071 15.454 20.0274 12.011 0.01762
3899 206 2 45.7846 13.9566 20.324 12.011 -0.23743
3900 206 2 45.6317 13.0342 19.1166 12.011 -0.24423
3901 206 3 45.2725 17.1365 23.2601 12.011 -0.1837
3902 206 3 45.7161 16.8169 24.4802 12.011 -0.23415
3903 206 1 45.8555 15.7926 24.7856 1.008 0.12909
3904 206 1 45.9518 17.5884 25.1932 1.008 0.12909
3905 206 1 45.1511 18.1749 22.9994 1.008 0.15086
3906 206 1 44.8836 15.1477 22.6353 1.008 0.07222
3907 206 1 43.9447 16.3737 21.7868 1.008 0.07222
3908 206 1 44.5894 15.674 19.6961 1.008 0.09202
3909 206 1 46.2805 15.7623 19.227 1.008 0.09202
3910 206 1 45.0196 13.6472 21.0277 1.008 0.10167
3911 206 1 46.7571 13.7753 20.7836 1.008 0.10167
3912 206 1 45.5045 12.0013 19.4511 1.008 0.08773
3913 206 1 44.7478 13.2973 18.5426 1.008 0.08773
3914 206 1 46.4991 13.0613 18.4567 1.008 0.08773
3915 207 4 36.0059 1.87606 27.9774 15.999 -0.35515
3916 207 2 35.874 1.97625 29.3829 12.011 0.03297
3917 207 2 37.2487 2.3685 27.5102 12.011 0.01762
3918 207 2 37.3139 3.89305 27.6795 12.011 -0.23743
3919 207 2 38.5064 4.52636 26.9706 12.011 -0.24423
3920 207 3 34.6192 1.26878 29.8192 12.011 -0.1837
3921 207 3 33.562 1.88666 30.3574 12.011 -0.23415
3922 207 1 33.5418 2.95437 30.5047 1.008 0.12909
3923 207 1 32.6916 1.32709 30.6588 1.008 0.12909
3924 207 1 34.592 0.199314 29.6841 1.008 0.15086
3925 207 1 35.7877 3.01685 29.6809 1.008 0.07222
3926 207 1 36.7319 1.53484 29.8899 1.008 0.07222
3927 207 1 38.0774 1.88019 28.0253 1.008 0.09202
3928 207 1 37.3298 2.11609 26.4519 1.008 0.09202
3929 207 1 37.3778 4.16874 28.7309 1.008 0.10167
3930 207 1 36.4037 4.33674 27.284 1.008 0.10167
3931 207 1 38.6936 5.52969 27.3601 1.008 0.08773
3932 207 1 39.4031 3.93031 27.1245 1.008 0.08773
3933 207 1 38.3335 4.61567 25.8965 1.008 0.08773
3934 208 4 48.1138 39.1891 3.75669 15.999 -0.35515
3935 208 2 49.4491 39.2704 3.28392 12.011 0.03297
3936 208 2 47.5756 40.4527 4.11678 12.011 0.01762
3937 208 2 48.2414 40.976 5.40157 12.011 -0.23743
3938 208 2 47.61 42.257 5.95253 12.011 -0.24423
3939 208 3 49.8681 37.9289 2.73411 12.011 -0.1837
3940 208 3 50.8006 37.1443 3.28682 12.011 -0.23415
3941 208 1 51.3154 37.4258 4.19076 1.008 0.12909
3942 208 1 51.0671 36.2001 2.83873 1.008 0.12909
3943 208 1 49.3802 37.6009 1.83016 1.008 0.15086
3944 208 1 50.1285 39.5422 4.08821 1.008 0.07222
3945 208 1 49.5396 40.0181 2.49589 1.008 0.07222
3946 208 1 47.6886 41.1658 3.29828 1.008 0.09202
3947 208 1 46.5043 40.3276 4.28236 1.008 0.09202
3948 208 1 49.2908 41.2007 5.22049 1.008 0.10167
3949 208 1 48.2108 40.209 6.17649 1.008 0.10167
3950 208 1 48.2904 42.73 6.66437 1.008 0.08773
3951 208 1 47.4053 42.9786 5.16215 1.008 0.08773
3952 208 1 46.6781 42.0611 6.48266 1.008 0.08773
3953 209 4 3.17941 40.0742 30.0432 15.999 -0.35515
3954 209 2 2.75861 38.7511 30.3253 12.011 0.03297
3955 209 2 4.15249 40.1743 29.0197 12.011 0.01762
3956 209 2 5.48438 39.5399 29.4515 12.011 -0.23743
3957 209 2 6.57106 39.7207 28.3944 12.011 -0.24423
3958 209 3 1.62329 38.8103 31.3206 12.011 -0.1837
3959 209 3 1.65045 38.2411 32.5321 12.011 -0.23415
3960 209 1 2.51205 37.6986 32.8841 1.008 0.12909
3961 209 1 0.815543 38.3327 33.2069 1.008 0.12909
3962 209 1 0.743033 39.365 31.0238 1.008 0.15086
3963 209 1 3.56478 38.1664 30.7606 1.008 0.07222
3964 209 1 2.41852 38.2458 29.4228 1.008 0.07222
3965 209 1 3.78472 39.7246 28.0938 1.008 0.09202
3966 209 1 4.30798 41.2369 28.8208 1.008 0.09202
3967 209 1 5.36982 38.4671 29.604 1.008 0.10167
3968 209 1 5.83011 39.9694 30.3961 1.008 0.10167
3969 209 1 7.30091 38.9181 28.4898 1.008 0.08773
3970 209 1 6.17156 39.6728 27.3802 1.008 0.08773
3971 209 1 7.09409 40.6696 28.5231 1.008 0.08773
3972 210 4 10.1179 9.72832 18.7636 15.999 -0.35515
3973 210 2 9.94347 9.80634 17.3567 12.011 0.03297
3974 210 2 11.2779 10.4121 19.2203 12.011 0.01762
3975 210 2 12.5494 9.61819 18.8707 12.011 -0.23743
3976 210 2 13.8458 10.2596 19.3734 12.011 -0.24423
3977 210 3 8.61159 9.20713 16.9778 12.011 -0.1837
3978 210 3 8.45869 8.06445 16.2978 12.011 -0.23415
3979 210 1 9.30396 7.47492 15.9835 1.008 0.12909
3980 210 1 7.47649 7.69824 16.0427 1.008 0.12909
3981 210 1 7.73497 9.75982 17.2725 1.008 0.15086
3982 210 1 10.7328 9.27181 16.8327 1.008 0.07222
3983 210 1 9.95635 10.8433 17.0233 1.008 0.07222
3984 210 1 11.3186 11.4243 18.8161 1.008 0.09202
3985 210 1 11.208 10.5151 20.3037 1.008 0.09202
3986 210 1 12.6541 9.51366 17.7938 1.008 0.10167
3987 210 1 12.4812 8.6074 19.272 1.008 0.10167
3988 210 1 14.6931 9.86612 18.8049 1.008 0.08773
3989 210 1 13.8429 11.3405 19.2319 1.008 0.08773
3990 210 1 14.0209 10.0442 20.4293 1.008 0.08773
3991 211 4 35.407 38.5096 10.3173 15.999 -0.35515
3992 211 2 35.5265 39.5798 11.2371 12.011 0.03297
3993 211 2 35.4528 37.2478 10.9639 12.011 0.01762
3994 211 2 36.8722 36.9739 11.4887 12.011 -0.23743
3995 211 2 37.0748 35.5517 12.0118 12.011 -0.24423
3996 211 3 35.2002 40.89 10.5698 12.011 -0.1837
3997 211 3 36.0995 41.8538 10.3529 12.011 -0.23415
3998 211 1 37.1359 41.7226 10.6217 1.008 0.12909
3999 211 1 35.8155 42.7899 9.89999 1.008 0.12909
4000 211 1 34.1717 41.0557 10.2899 1.008 0.15086
4001 211 1 36.5383 39.6401 11.6321 1.008 0.07222
4002 211 1 34.8416 39.4408 12.0705 1.008 0.07222
4003 211 1 34.7184 37.2026 11.77 1.008 0.09202
4004 211 1 35.1723 36.484 10.2374 1.008 0.09202
4005 211 1 37.1217 37.6537 12.3017 1.008 0.10167
4006 211 1 37.5933 37.1536 10.6921 1.008 0.10167
4007 211 1 37.9994 35.4944 12.5914 1.008 0.08773
4008 211 1 36.258 35.2402 12.6626 1.008 0.08773
4009 211 1 37.156 34.8348 11.1921 1.008 0.08773
4010 212 4 20.6707 28.6619 41.0591 15.999 -0.35515
4011 212 2 20.2798 29.1283 42.3403 12.011 0.03297
4012 212 2 19.8809 29.201 40.01 12.011 0.01762
4013 212 2 18.4315 28.6818 40.0593 12.011 -0.23743
4014 212 2 17.6153 29.0909 38.838 12.011 -0.24423
4015 212 3 21.2329 28.6016 43.3861 12.011 -0.1837
4016 212 3 20.8814 27.7937 44.3952 12.011 -0.23415
4017 212 1 19.8694 27.4416 44.5094 1.008 0.12909
4018 212 1 21.6037 27.4679 45.1263 1.008 0.12909
4019 212 1 22.2562 28.9234 43.2999 1.008 0.15086
4020 212 1 19.277 28.7946 42.5959 1.008 0.07222
4021 212 1 20.2917 30.2167 42.3629 1.008 0.07222
4022 212 1 19.8998 30.2915 40.0469 1.008 0.09202
4023 212 1 20.3359 28.9053 39.0632 1.008 0.09202
4024 212 1 17.9111 29.0638 40.9376 1.008 0.10167
4025 212 1 18.4042 27.5957 40.1127 1.008 0.10167
4026 212 1 16.5469 28.9883 39.0479 1.008 0.08773
4027 212 1 17.8147 30.1264 38.5689 1.008 0.08773
4028 212 1 17.846 28.4641 37.9745 1.008 0.08773
4029 213 4 47.6525 38.0467 10.7572 15.999 -0.35515
4030 213 2 48.4434 36.9246 11.1195 12.011 0.03297
4031 213 2 46.6912 38.3666 11.7432 12.011 0.01762
4032 213 2 45.5503 37.343 11.72 12.011 -0.23743
4033 213 2 44.3795 37.7312 12.6233 12.011 -0.24423
4034 213 3 49.6147 36.8684 10.1799 12.011 -0.1837
4035 213 3 49.9052 35.8356 9.38943 12.011 -0.23415
4036 213 1 49.3131 34.9351 9.35921 1.008 0.12909
4037 213 1 50.7637 35.886 8.7473 1.008 0.12909
4038 213 1 50.2609 37.7239 10.1516 1.008 0.15086
4039 213 1 47.8743 35.9955 11.053 1.008 0.07222
4040 213 1 48.8318 37.0168 12.1355 1.008 0.07222
4041 213 1 47.1502 38.4233 12.7288 1.008 0.09202
4042 213 1 46.3007 39.3565 11.5163 1.008 0.09202
4043 213 1 45.9046 36.364 12.0397 1.008 0.10167
4044 213 1 45.1721 37.2297 10.7037 1.008 0.10167
4045 213 1 43.7218 36.872 12.78 1.008 0.08773
4046 213 1 44.719 38.0696 13.6022 1.008 0.08773
4047 213 1 43.7814 38.5263 12.1732 1.008 0.08773
4048 214 4 19.649 47.6468 43.5587 15.999 -0.35515
4049 214 2 20.1766 47.9689 42.282 12.011 0.03297
4050 214 2 18.875 46.4565 43.5547 12.011 0.01762
4051 214 2 17.5488 46.6841 42.809 12.011 -0.23743
4052 214 2 16.5647 45.5186 42.9256 12.011 -0.24423
4053 214 3 21.166 49.1015 42.4216 12.011 -0.1837
4054 214 3 20.9786 50.3362 41.9416 12.011 -0.23415
4055 214 1 20.0747 50.6099 41.4233 1.008 0.12909
4056 214 1 21.7333 51.0976 42.0636 1.008 0.12909
4057 214 1 22.085 48.8826 42.9403 1.008 0.15086
4058 214 1 19.3864 48.2728 41.6007 1.008 0.07222
4059 214 1 20.6872 47.1111 41.8452 1.008 0.07222
4060 214 1 19.4365 45.6301 43.1156 1.008 0.09202
4061 214 1 18.6716 46.1829 44.5916 1.008 0.09202
4062 214 1 17.7294 46.8439 41.7475 1.008 0.10167
4063 214 1 17.0614 47.5823 43.1888 1.008 0.10167
4064 214 1 15.7747 45.6196 42.1775 1.008 0.08773
4065 214 1 17.0513 44.5577 42.7596 1.008 0.08773
4066 214 1 16.0865 45.496 43.9065 1.008 0.08773
4067 215 4 42.2998 8.91545 42.6268 15.999 -0.35515
4068 215 2 42.8239 8.29232 43.7844 12.011 0.03297
4069 215 2 42.2439 10.3225 42.7725 12.011 0.01762
4070 215 2 41.028 10.7271 43.613 12.011 -0.23743
4071 215 2 40.8307 12.2428 43.6494 12.011 -0.24423
4072 215 3 43.1002 6.85141 43.447 12.011 -0.1837
4073 215 3 42.4053 5.82263 43.9381 12.011 -0.23415
4074 215 1 41.5956 5.97251 44.6313 1.008 0.12909
4075 215 1 42.6226 4.81339 43.6375 1.008 0.12909
4076 215 1 43.9039 6.66508 42.7541 1.008 0.15086
4077 215 1 42.1098 8.34915 44.6022 1.008 0.07222
4078 215 1 43.753 8.76133 44.1082 1.008 0.07222
4079 215 1 43.1566 10.7041 43.2303 1.008 0.09202
4080 215 1 42.1744 10.7677 41.7799 1.008 0.09202
4081 215 1 41.1459 10.3753 44.6362 1.008 0.10167
4082 215 1 40.126 10.2603 43.2168 1.008 0.10167
4083 215 1 40.1594 12.5266 44.4634 1.008 0.08773
4084 215 1 41.7775 12.7627 43.8015 1.008 0.08773
4085 215 1 40.3937 12.5977 42.7139 1.008 0.08773
4086 216 4 35.6099 49.3736 27.0028 15.999 -0.35515
4087 216 2 35.2868 48.0147 27.2371 12.011 0.03297
4088 216 2 36.9686 49.5757 26.661 12.011 0.01762
4089 216 2 37.8701 49.3309 27.8784 12.011 -0.23743
4090 216 2 39.3261 49.7075 27.6166 12.011 -0.24423
4091 216 3 33.789 47.9177 27.3722 12.011 -0.1837
4092 216 3 33.153 47.6587 28.519 12.011 -0.23415
4093 216 1 33.6895 47.4875 29.4371 1.008 0.12909
4094 216 1 32.0758 47.6099 28.5543 1.008 0.12909
4095 216 1 33.2123 48.0815 26.4762 1.008 0.15086
4096 216 1 35.7483 47.6571 28.1548 1.008 0.07222
4097 216 1 35.6169 47.381 26.4141 1.008 0.07222
4098 216 1 37.2556 48.9369 25.8241 1.008 0.09202
4099 216 1 37.0791 50.6102 26.331 1.008 0.09202
4100 216 1 37.8511 48.2822 28.172 1.008 0.10167
4101 216 1 37.5096 49.9077 28.7318 1.008 0.10167
4102 216 1 39.9586 49.2508 28.3728 1.008 0.08773
4103 216 1 39.6697 49.3553 26.6447 1.008 0.08773
4104 216 1 39.4758 50.7876 27.6743 1.008 0.08773
4105 217 4 20.292 24.1898 5.34101 15.999 -0.35515
4106 217 2 20.6155 23.8207 4.02036 12.011 0.03297
4107 217 2 19.439 25.3202 5.3798 12.011 0.01762
4108 217 2 20.201 26.6103 5.051 12.011 -0.23743
4109 217 2 19.3452 27.8514 5.28118 12.011 -0.24423
4110 217 3 21.3818 22.5242 4.10345 12.011 -0.1837
4111 217 3 22.7179 22.4438 4.18314 12.011 -0.23415
4112 217 1 23.3318 23.3252 4.1719 1.008 0.12909
4113 217 1 23.2091 21.4804 4.23196 1.008 0.12909
4114 217 1 20.8104 21.6024 4.11033 1.008 0.15086
4115 217 1 21.2429 24.5719 3.55568 1.008 0.07222
4116 217 1 19.7243 23.6671 3.4128 1.008 0.07222
4117 217 1 18.6205 25.2119 4.67226 1.008 0.09202
4118 217 1 18.9821 25.4031 6.36903 1.008 0.09202
4119 217 1 20.5022 26.6069 4.00693 1.008 0.10167
4120 217 1 21.1073 26.6795 5.64754 1.008 0.10167
4121 217 1 19.7787 28.7212 4.78315 1.008 0.08773
4122 217 1 18.344 27.7005 4.88256 1.008 0.08773
4123 217 1 19.2551 28.0838 6.34251 1.008 0.08773
4124 218 4 45.7949 39.9067 22.4771 15.999 -0.35515
4125 218 2 47.0011 40.5638 22.1268 12.011 0.03297
4126 218 2 44.7751 40.0974 21.5088 12.011 0.01762
4127 218 2 44.2908 41.5569 21.5167 12.011 -0.23743
4128 218 2 43.0829 41.8093 20.6148 12.011 -0.24423
4129 218 3 48.0951 40.1298 23.0662 12.011 -0.1837
4130 218 3 48.6321 40.9111 24.0109 12.011 -0.23415
4131 218 1 48.2942 41.9222 24.1672 1.008 0.12909
4132 218 1 49.4199 40.5463 24.6519 1.008 0.12909
4133 218 1 48.4527 39.1197 22.9507 1.008 0.15086
4134 218 1 46.8915 41.6425 22.2029 1.008 0.07222
4135 218 1 47.2949 40.3215 21.1061 1.008 0.07222
4136 218 1 45.1317 39.8137 20.5192 1.008 0.09202
4137 218 1 43.9459 39.4308 21.7491 1.008 0.09202
4138 218 1 45.0786 42.2224 21.1667 1.008 0.10167
4139 218 1 44.0373 41.8591 22.5331 1.008 0.10167
4140 218 1 42.9539 42.884 20.467 1.008 0.08773
4141 218 1 43.2225 41.3628 19.6302 1.008 0.08773
4142 218 1 42.163 41.4188 21.0529 1.008 0.08773
4143 219 4 23.8846 22.1682 39.784 15.999 -0.35515
4144 219 2 24.5088 23.0154 40.7365 12.011 0.03297
4145 219 2 22.5236 21.9093 40.1101 12.011 0.01762
4146 219 2 22.424 20.9478 41.3061 12.011 -0.23743
4147 219 2 21.0083 20.4257 41.5634 12.011 -0.24423
4148 219 3 25.8848 23.4292 40.2723 12.011 -0.1837
4149 219 3 27.0245 23.0174 40.841 12.011 -0.23415
4150 219 1 27.0214 22.3264 41.6681 1.008 0.12909
4151 219 1 27.9826 23.3659 40.4915 1.008 0.12909
4152 219 1 25.9296 24.1235 39.4495 1.008 0.15086
4153 219 1 24.5958 22.5136 41.6976 1.008 0.07222
4154 219 1 23.9251 23.9214 40.8827 1.008 0.07222
4155 219 1 21.9907 22.8359 40.3221 1.008 0.09202
4156 219 1 22.0375 21.4666 39.2407 1.008 0.09202
4157 219 1 22.7494 21.4499 42.2177 1.008 0.10167
4158 219 1 23.0856 20.0948 41.1552 1.008 0.10167
4159 219 1 20.9584 19.9535 42.5476 1.008 0.08773
4160 219 1 20.2747 21.2324 41.5546 1.008 0.08773
4161 219 1 20.7141 19.679 40.8235 1.008 0.08773
4162 220 4 25.0635 21.2115 9.18318 15.999 -0.35515
4163 220 2 25.5771 21.6411 10.4336 12.011 0.03297
4164 220 2 23.6452 21.1864 9.09719 12.011 0.01762
4165 220 2 23.0325 20.0876 9.99025 12.011 -0.23743
4166 220 2 21.51 19.977 9.88924 12.011 -0.24423
4167 220 3 27.0852 21.6911 10.3404 12.011 -0.1837
4168 220 3 27.9162 20.9086 11.0405 12.011 -0.23415
4169 220 1 27.5503 20.1699 11.7359 1.008 0.12909
4170 220 1 28.985 20.9887 10.9221 1.008 0.12909
4171 220 1 27.5008 22.406 9.64853 1.008 0.15086
4172 220 1 25.3128 20.9386 11.2178 1.008 0.07222
4173 220 1 25.1924 22.6239 10.7022 1.008 0.07222
4174 220 1 23.2339 22.1686 9.33635 1.008 0.09202
4175 220 1 23.3949 20.9789 8.05458 1.008 0.09202
4176 220 1 23.2601 20.271 11.0356 1.008 0.10167
4177 220 1 23.4588 19.1184 9.7317 1.008 0.10167
4178 220 1 21.106 19.4691 10.7672 1.008 0.08773
4179 220 1 21.0359 20.9578 9.83022 1.008 0.08773
4180 220 1 21.219 19.3911 9.01666 1.008 0.08773
4181 221 4 9.19754 14.9253 29.8666 15.999 -0.35515
4182 221 2 10.4859 15.2504 30.3557 12.011 0.03297
4183 221 2 9.23282 14.3836 28.5557 12.011 0.01762
4184 221 2 9.59947 15.4663 27.5264 12.011 -0.23743
4185 221 2 9.45383 15.0002 26.0762 12.011 -0.24423
4186 221 3 10.3872 15.6035 31.8182 12.011 -0.1837
4187 221 3 10.5529 16.841 32.2964 12.011 -0.23415
4188 221 1 10.7527 17.6624 31.6315 1.008 0.12909
4189 221 1 10.4898 17.0531 33.352 1.008 0.12909
4190 221 1 10.1755 14.7974 32.5015 1.008 0.15086
4191 221 1 10.8934 16.1039 29.8189 1.008 0.07222
4192 221 1 11.1728 14.4127 30.239 1.008 0.07222
4193 221 1 9.92895 13.5449 28.5067 1.008 0.09202
4194 221 1 8.24176 13.9882 28.3296 1.008 0.09202
4195 221 1 10.6277 15.7972 27.6618 1.008 0.10167
4196 221 1 8.96325 16.3404 27.6702 1.008 0.10167
4197 221 1 9.96513 15.6936 25.404 1.008 0.08773
4198 221 1 9.88705 14.0123 25.9227 1.008 0.08773
4199 221 1 8.40528 14.9658 25.775 1.008 0.08773
4200 222 4 42.2468 39.1686 36.3549 15.999 -0.35515
4201 222 2 43.1199 38.6906 37.3637 12.011 0.03297
4202 222 2 41.4039 40.2077 36.8282 12.011 0.01762
4203 222 2 40.4697 39.6774 37.926 12.011 -0.23743
4204 222 2 39.3745 40.6662 38.3149 12.011 -0.24423
4205 222 3 44.2269 37.8911 36.7246 12.011 -0.1837
4206 222 3 44.5811 36.6602 37.1015 12.011 -0.23415
4207 222 1 44.0727 36.1398 37.8954 1.008 0.12909
4208 222 1 45.3878 36.1482 36.6007 1.008 0.12909
4209 222 1 44.768 38.3596 35.92 1.008 0.15086
4210 222 1 42.5905 38.0638 38.0767 1.008 0.07222
4211 222 1 43.5582 39.5204 37.9136 1.008 0.07222
4212 222 1 41.9913 41.0467 37.2031 1.008 0.09202
4213 222 1 40.8221 40.587 35.9869 1.008 0.09202
4214 222 1 41.0341 39.4519 38.8307 1.008 0.10167
4215 222 1 39.9996 38.7529 37.5981 1.008 0.10167
4216 222 1 38.9326 40.3805 39.273 1.008 0.08773
4217 222 1 39.7761 41.6734 38.4186 1.008 0.08773
4218 222 1 38.5768 40.6904 37.5705 1.008 0.08773
4219 223 4 42.159 13.745 37.1529 15.999 -0.35515
4220 223 2 41.5502 13.011 38.2043 12.011 0.03297
4221 223 2 42.2803 12.9899 35.9586 12.011 0.01762
4222 223 2 43.4235 11.9708 36.1025 12.011 -0.23743
4223 223 2 43.7504 11.2086 34.8148 12.011 -0.24423
4224 223 3 41.1803 13.9579 39.3194 12.011 -0.1837
4225 223 3 41.8123 14.0321 40.4962 12.011 -0.23415
4226 223 1 42.6609 13.4094 40.7228 1.008 0.12909
4227 223 1 41.4808 14.7234 41.2558 1.008 0.12909
4228 223 1 40.3336 14.6023 39.139 1.008 0.15086
4229 223 1 42.2242 12.2469 38.5849 1.008 0.07222
4230 223 1 40.6379 12.5203 37.865 1.008 0.07222
4231 223 1 41.3329 12.5076 35.7161 1.008 0.09202
4232 223 1 42.5 13.6772 35.1395 1.008 0.09202
4233 223 1 43.1873 11.2342 36.867 1.008 0.10167
4234 223 1 44.3276 12.4808 36.4345 1.008 0.10167
4235 223 1 44.3593 10.3301 35.0434 1.008 0.08773
4236 223 1 42.8543 10.8581 34.3047 1.008 0.08773
4237 223 1 44.3173 11.8297 34.1196 1.008 0.08773
4238 224 4 32.6342 27.6357 28.914 15.999 -0.35515
4239 224 2 31.3471 28.1419 29.2182 12.011 0.03297
4240 224 2 33.6222 28.1301 29.8028 12.011 0.01762
4241 224 2 33.8751 29.6248 29.5488 12.011 -0.23743
4242 224 2 35.0436 30.1676 30.3598 12.011 -0.24423
4243 224 3 30.3255 27.4593 28.3478 12.011 -0.1837
4244 224 3 29.5967 28.0932 27.4241 12.011 -0.23415
4245 224 1 29.718 29.1496 27.2566 1.008 0.12909
4246 224 1 28.8673 27.5718 26.8255 1.008 0.12909
4247 224 1 30.1871 26.4016 28.5013 1.008 0.15086
4248 224 1 31.2999 29.2079 29.016 1.008 0.07222
4249 224 1 31.0973 27.9782 30.2666 1.008 0.07222
4250 224 1 33.3304 27.9556 30.8405 1.008 0.09202
4251 224 1 34.5445 27.5715 29.6351 1.008 0.09202
4252 224 1 33.0072 30.2249 29.8169 1.008 0.10167
4253 224 1 34.0663 29.8061 28.4908 1.008 0.10167
4254 224 1 35.0183 31.259 30.359 1.008 0.08773
4255 224 1 34.9821 29.8309 31.3948 1.008 0.08773
4256 224 1 36.0001 29.8478 29.941 1.008 0.08773
4257 225 4 35.5929 38.8544 27.6283 15.999 -0.35515
4258 225 2 35.8482 37.9939 26.5324 12.011 0.03297
4259 225 2 34.3358 39.5067 27.5231 12.011 0.01762
4260 225 2 34.3195 40.4455 26.304 12.011 -0.23743
4261 225 2 33.0579 41.2945 26.2053 12.011 -0.24423
4262 225 3 37.0581 37.1423 26.8018 12.011 -0.1837
4263 225 3 38.219 37.2711 26.1514 12.011 -0.23415
4264 225 1 38.3483 38.0218 25.3899 1.008 0.12909
4265 225 1 39.0584 36.6309 26.3724 1.008 0.12909
4266 225 1 36.9582 36.3836 27.5597 1.008 0.15086
4267 225 1 36.0341 38.5562 25.6212 1.008 0.07222
4268 225 1 35.002 37.3402 26.3621 1.008 0.07222
4269 225 1 33.5236 38.7794 27.4669 1.008 0.09202
4270 225 1 34.1779 40.0862 28.4345 1.008 0.09202
4271 225 1 34.3813 39.8908 25.3705 1.008 0.10167
4272 225 1 35.1808 41.1139 26.3437 1.008 0.10167
4273 225 1 32.9525 41.7088 25.1996 1.008 0.08773
4274 225 1 32.1557 40.7267 26.4328 1.008 0.08773
4275 225 1 33.1159 42.1289 26.8951 1.008 0.08773
4276 226 4 6.39981 38.8757 7.50318 15.999 -0.35515
4277 226 2 5.98251 38.3141 6.27222 12.011 0.03297
4278 226 2 5.64081 40.0313 7.81298 12.011 0.01762
4279 226 2 6.15978 41.213 6.98835 12.011 -0.23743
4280 226 2 5.51536 42.5481 7.35952 12.011 -0.24423
4281 226 3 6.51135 36.9099 6.16264 12.011 -0.1837
4282 226 3 7.62781 36.5518 5.51927 12.011 -0.23415
4283 226 1 8.25294 37.2796 5.03083 1.008 0.12909
4284 226 1 7.93543 35.517 5.48383 1.008 0.12909
4285 226 1 5.91998 36.1567 6.64775 1.008 0.15086
4286 226 1 6.34126 38.9083 5.43536 1.008 0.07222
4287 226 1 4.8952 38.2494 6.2101 1.008 0.07222
4288 226 1 4.57793 39.8671 7.62802 1.008 0.09202
4289 226 1 5.73878 40.2336 8.87974 1.008 0.09202
4290 226 1 5.97413 41.0398 5.93043 1.008 0.10167
4291 226 1 7.23865 41.2956 7.11625 1.008 0.10167
4292 226 1 5.73324 43.294 6.59114 1.008 0.08773
4293 226 1 4.43255 42.461 7.44394 1.008 0.08773
4294 226 1 5.90376 42.923 8.30833 1.008 0.08773
4295 227 4 35.5431 21.269 44.5984 15.999 -0.35515
4296 227 2 34.9975 20.8786 45.8454 12.011 0.03297
4297 227 2 36.9605 21.2055 44.5799 12.011 0.01762
4298 227 2 37.5493 22.35 45.4204 12.011 -0.23743
4299 227 2 39.0655 22.487 45.2861 12.011 -0.24423
4300 227 3 33.5031 20.7409 45.6986 12.011 -0.1837
4301 227 3 32.6109 21.5717 46.2497 12.011 -0.23415
4302 227 1 32.9198 22.4204 46.8376 1.008 0.12909
4303 227 1 31.5519 21.4169 46.1179 1.008 0.12909
4304 227 1 33.1537 19.9083 45.1084 1.008 0.15086
4305 227 1 35.2131 21.6216 46.6097 1.008 0.07222
4306 227 1 35.4106 19.9238 46.1708 1.008 0.07222
4307 227 1 37.3116 20.2334 44.9328 1.008 0.09202
4308 227 1 37.2918 21.3026 43.5449 1.008 0.09202
4309 227 1 37.3289 22.1997 46.4758 1.008 0.10167
4310 227 1 37.0925 23.2963 45.1294 1.008 0.10167
4311 227 1 39.4669 23.0785 46.1129 1.008 0.08773
4312 227 1 39.5551 21.5153 45.3 1.008 0.08773
4313 227 1 39.3399 22.989 44.3571 1.008 0.08773
4314 228 4 3.19966 44.9052 39.7311 15.999 -0.35515
4315 228 2 2.48896 46.0007 40.2887 12.011 0.03297
4316 228 2 4.35078 44.555 40.4901 12.011 0.01762
4317 228 2 5.443 45.6338 40.3722 12.011 -0.23743
4318 228 2 6.78756 45.2413 40.9891 12.011 -0.24423
4319 228 3 1.19091 46.2091 39.5467 12.011 -0.1837
4320 228 3 0.920372 47.2777 38.7875 12.011 -0.23415
4321 228 1 1.64474 48.0642 38.6474 1.008 0.12909
4322 228 1 51.9534 47.3832 38.2929 1.008 0.12909
4323 228 1 0.443172 45.4434 39.6592 1.008 0.15086
4324 228 1 3.07206 46.9122 40.2149 1.008 0.07222
4325 228 1 2.27234 45.8301 41.3435 1.008 0.07222
4326 228 1 4.08573 44.3892 41.536 1.008 0.09202
4327 228 1 4.7307 43.6089 40.1025 1.008 0.09202
4328 228 1 5.12738 46.5515 40.8657 1.008 0.10167
4329 228 1 5.60543 45.8883 39.3245 1.008 0.10167
4330 228 1 7.3839 46.1397 41.1642 1.008 0.08773
4331 228 1 6.66435 44.7408 41.9492 1.008 0.08773
4332 228 1 7.35935 44.5918 40.3235 1.008 0.08773
4333 229 4 37.7755 37.0871 19.5942 15.999 -0.35515
4334 229 2 38.004 38.4835 19.4816 12.011 0.03297
4335 229 2 37.8935 36.3986 18.3538 12.011 0.01762
4336 229 2 36.7176 36.7431 17.4238 12.011 -0.23743
4337 229 2 36.637 35.922 16.1324 12.011 -0.24423
4338 229 3 38.1283 39.1253 20.843 12.011 -0.1837
4339 229 3 37.3105 40.0829 21.2983 12.011 -0.23415
4340 229 1 36.4828 40.4433 20.7084 1.008 0.12909
4341 229 1 37.4507 40.5208 22.2732 1.008 0.12909
4342 229 1 38.9443 38.7939 21.4667 1.008 0.15086
4343 229 1 37.1802 38.9612 18.959 1.008 0.07222
4344 229 1 38.9225 38.6782 18.9313 1.008 0.07222
4345 229 1 38.8469 36.632 17.8759 1.008 0.09202
4346 229 1 37.8932 35.3278 18.5639 1.008 0.09202
4347 229 1 36.7906 37.7838 17.1209 1.008 0.10167
4348 229 1 35.7785 36.619 17.9631 1.008 0.10167
4349 229 1 35.9449 36.4026 15.4348 1.008 0.08773
4350 229 1 37.6039 35.849 15.6333 1.008 0.08773
4351 229 1 36.2615 34.9136 16.3186 1.008 0.08773
4352 230 4 16.2248 6.28541 49.6811 15.999 -0.35515
4353 230 2 16.6911 5.00855 50.0781 12.011 0.03297
4354 230 2 14.8173 6.40581 49.8072 12.011 0.01762
4355 230 2 14.0785 5.65612 48.6955 12.011 -0.23743
4356 230 2 12.5798 5.9561 48.7257 12.011 -0.24423
4357 230 3 18.199 5.00904 50.1102 12.011 -0.1837
4358 230 3 18.9681 4.35626 49.2307 12.011 -0.23415
4359 230 1 18.5378 3.79348 48.4189 1.008 0.12909
4360 230 1 20.0437 4.37255 49.3095 1.008 0.12909
4361 230 1 18.6682 5.56379 50.9063 1.008 0.15086
4362 230 1 16.3487 4.25014 49.3779 1.008 0.07222
4363 230 1 16.324 4.7484 51.0711 1.008 0.07222
4364 230 1 14.4814 6.038 50.7779 1.008 0.09202
4365 230 1 14.5612 7.46525 49.7571 1.008 0.09202
4366 230 1 14.2119 4.5807 48.8058 1.008 0.10167
4367 230 1 14.4773 5.93216 47.7186 1.008 0.10167
4368 230 1 12.0244 5.21051 48.1524 1.008 0.08773
4369 230 1 12.1957 5.94301 49.7458 1.008 0.08773
4370 230 1 12.3664 6.93646 48.2956 1.008 0.08773
4371 231 4 12.224 45.8888 15.0328 15.999 -0.35515
4372 231 2 11.7513 47.2271 14.9597 12.011 0.03297
4373 231 2 12.0611 45.2629 16.2982 12.011 0.01762
4374 231 2 12.8876 45.9541 17.3944 12.011 -0.23743
4375 231 2 12.8106 45.2718 18.7654 12.011 -0.24423
4376 231 3 11.7954 47.7008 13.5275 12.011 -0.1837
4377 231 3 12.5871 48.6845 13.0855 12.011 -0.23415
4378 231 1 13.2699 49.204 13.739 1.008 0.12909
4379 231 1 12.5852 48.9747 12.0474 1.008 0.12909
4380 231 1 11.1504 47.197 12.8291 1.008 0.15086
4381 231 1 12.3672 47.8882 15.5656 1.008 0.07222
4382 231 1 10.7267 47.3082 15.3114 1.008 0.07222
4383 231 1 11.0155 45.2423 16.576 1.008 0.09202
4384 231 1 12.3631 44.2222 16.1853 1.008 0.09202
4385 231 1 12.5224 46.9693 17.5323 1.008 0.10167
4386 231 1 13.9332 46.0202 17.0924 1.008 0.10167
4387 231 1 13.1644 45.9604 19.539 1.008 0.08773
4388 231 1 11.784 44.9941 19.0177 1.008 0.08773
4389 231 1 13.4376 44.3772 18.8064 1.008 0.08773
4390 232 4 3.85574 45.0912 45.7432 15.999 -0.35515
4391 232 2 5.01185 45.4953 46.4553 12.011 0.03297
4392 232 2 2.94782 44.361 46.5537 12.011 0.01762
4393 232 2 3.51823 42.9707 46.8819 12.011 -0.23743
4394 232 2 2.52133 42.0488 47.5848 12.011 -0.24423
4395 232 3 5.82498 46.4321 45.5995 12.011 -0.1837
4396 232 3 7.02382 46.1277 45.0909 12.011 -0.23415
4397 232 1 7.47951 45.1648 45.2527 1.008 0.12909
4398 232 1 7.57367 46.8432 44.5053 1.008 0.12909
4399 232 1 5.40302 47.4058 45.4102 1.008 0.15086
4400 232 1 5.62945 44.6366 46.7071 1.008 0.07222
4401 232 1 4.74353 46.0055 47.3801 1.008 0.07222
4402 232 1 2.71599 44.9139 47.4654 1.008 0.09202
4403 232 1 2.01319 44.2536 46.0015 1.008 0.09202
4404 232 1 4.3868 43.0556 47.5325 1.008 0.10167
4405 232 1 3.85319 42.4821 45.9668 1.008 0.10167
4406 232 1 3.04477 41.1953 48.023 1.008 0.08773
4407 232 1 1.99815 42.5624 48.3909 1.008 0.08773
4408 232 1 1.77977 41.6589 46.8854 1.008 0.08773
4409 233 4 14.9027 20.5602 42.521 15.999 -0.35515
4410 233 2 15.95 21.025 41.6911 12.011 0.03297
4411 233 2 14.1907 19.4947 41.92 12.011 0.01762
4412 233 2 13.4301 19.9955 40.6813 12.011 -0.23743
4413 233 2 12.4823 18.9474 40.1121 12.011 -0.24423
4414 233 3 16.791 21.9898 42.4726 12.011 -0.1837
4415 233 3 16.8547 23.2947 42.2077 12.011 -0.23415
4416 233 1 16.2924 23.7539 41.4102 1.008 0.12909
4417 233 1 17.488 23.9185 42.8104 1.008 0.12909
4418 233 1 17.3733 21.5947 43.288 1.008 0.15086
4419 233 1 15.5569 21.5526 40.8246 1.008 0.07222
4420 233 1 16.5779 20.2051 41.3442 1.008 0.07222
4421 233 1 14.8702 18.681 41.6591 1.008 0.09202
4422 233 1 13.4836 19.1013 42.6526 1.008 0.09202
4423 233 1 14.1107 20.2762 39.8793 1.008 0.10167
4424 233 1 12.852 20.8837 40.9397 1.008 0.10167
4425 233 1 12.1223 19.2502 39.1262 1.008 0.08773
4426 233 1 12.9626 17.9743 40.0166 1.008 0.08773
4427 233 1 11.6168 18.838 40.76 1.008 0.08773
4428 234 4 30.4031 13.5143 29.4706 15.999 -0.35515
4429 234 2 29.9277 12.2305 29.8394 12.011 0.03297
4430 234 2 29.4265 14.5337 29.6379 12.011 0.01762
4431 234 2 28.2942 14.3831 28.607 12.011 -0.23743
4432 234 2 27.3262 15.5667 28.5805 12.011 -0.24423
4433 234 3 31.0673 11.2382 29.8055 12.011 -0.1837
4434 234 3 31.1661 10.2016 28.9625 12.011 -0.23415
4435 234 1 30.4228 9.99438 28.2116 1.008 0.12909
4436 234 1 32.0068 9.52768 29.0145 1.008 0.12909
4437 234 1 31.8474 11.383 30.5339 1.008 0.15086
4438 234 1 29.1522 11.9064 29.1536 1.008 0.07222
4439 234 1 29.5066 12.2493 30.845 1.008 0.07222
4440 234 1 29.0308 14.5305 30.6552 1.008 0.09202
4441 234 1 29.9179 15.4969 29.4936 1.008 0.09202
4442 234 1 27.7002 13.4933 28.8098 1.008 0.10167
4443 234 1 28.7167 14.2704 27.6095 1.008 0.10167
4444 234 1 26.4394 15.3094 27.9976 1.008 0.08773
4445 234 1 26.9952 15.8375 29.5831 1.008 0.08773
4446 234 1 27.7717 16.4462 28.1123 1.008 0.08773
4447 235 4 28.8083 32.8795 25.499 15.999 -0.35515
4448 235 2 28.6579 33.2849 26.849 12.011 0.03297
4449 235 2 29.535 31.6622 25.3822 12.011 0.01762
4450 235 2 31.008 31.8569 25.7738 12.011 -0.23743
4451 235 2 31.9241 30.6679 25.469 12.011 -0.24423
4452 235 3 27.696 34.445 26.907 12.011 -0.1837
4453 235 3 27.9644 35.6176 27.4927 12.011 -0.23415
4454 235 1 28.9177 35.8044 27.9592 1.008 0.12909
4455 235 1 27.234 36.4077 27.5317 1.008 0.12909
4456 235 1 26.7233 34.2916 26.4727 1.008 0.15086
4457 235 1 29.6111 33.596 27.2753 1.008 0.07222
4458 235 1 28.2695 32.4641 27.4534 1.008 0.07222
4459 235 1 29.0796 30.8879 25.9957 1.008 0.09202
4460 235 1 29.4735 31.3241 24.3484 1.008 0.09202
4461 235 1 31.1038 32.0683 26.8388 1.008 0.10167
4462 235 1 31.4019 32.7212 25.2463 1.008 0.10167
4463 235 1 32.8356 30.7447 26.069 1.008 0.08773
4464 235 1 31.4582 29.7116 25.7045 1.008 0.08773
4465 235 1 32.2274 30.6573 24.4207 1.008 0.08773
4466 236 4 2.91096 33.9292 10.4936 15.999 -0.35515
4467 236 2 2.54937 33.1726 9.36044 12.011 0.03297
4468 236 2 3.95562 33.3068 11.2172 12.011 0.01762
4469 236 2 3.39255 32.2601 12.1902 12.011 -0.23743
4470 236 2 4.46525 31.7742 13.1692 12.011 -0.24423
4471 236 3 1.76906 34.0521 8.42529 12.011 -0.1837
4472 236 3 0.456323 33.962 8.20068 12.011 -0.23415
4473 236 1 51.8026 33.2591 8.73351 1.008 0.12909
4474 236 1 0.00520653 34.5933 7.43916 1.008 0.12909
4475 236 1 2.33223 34.7429 7.83389 1.008 0.15086
4476 236 1 1.99793 32.2775 9.65145 1.008 0.07222
4477 236 1 3.43289 32.8519 8.81282 1.008 0.07222
4478 236 1 4.67656 32.84 10.5454 1.008 0.09202
4479 236 1 4.49546 34.0823 11.7663 1.008 0.09202
4480 236 1 2.99312 31.4003 11.6442 1.008 0.10167
4481 236 1 2.56674 32.6847 12.7655 1.008 0.10167
4482 236 1 4.1292 30.8819 13.7009 1.008 0.08773
4483 236 1 5.38883 31.5277 12.6454 1.008 0.08773
4484 236 1 4.68892 32.5425 13.9098 1.008 0.08773
4485 237 4 42.2392 5.82294 24.1154 15.999 -0.35515
4486 237 2 41.0804 6.52355 24.5298 12.011 0.03297
4487 237 2 41.9237 4.5348 23.6215 12.011 0.01762
4488 237 2 41.5554 3.60493 24.7867 12.011 -0.23743
4489 237 2 41.4031 2.13953 24.3805 12.011 -0.24423
4490 237 3 41.4187 7.97225 24.7569 12.011 -0.1837
4491 237 3 41.6016 8.51329 25.9635 12.011 -0.23415
4492 237 1 41.5569 7.90433 26.8482 1.008 0.12909
4493 237 1 41.811 9.56279 26.0889 1.008 0.12909
4494 237 1 41.5032 8.59339 23.8829 1.008 0.15086
4495 237 1 40.6943 6.10814 25.4577 1.008 0.07222
4496 237 1 40.2909 6.47164 23.7796 1.008 0.07222
4497 237 1 41.1135 4.59396 22.8929 1.008 0.09202
4498 237 1 42.7965 4.14913 23.0967 1.008 0.09202
4499 237 1 40.6104 3.9189 25.2186 1.008 0.10167
4500 237 1 42.3068 3.67546 25.5736 1.008 0.10167
4501 237 1 40.8924 1.57925 25.1675 1.008 0.08773
4502 237 1 40.8135 2.03747 23.4694 1.008 0.08773
4503 237 1 42.3753 1.67299 24.214 1.008 0.08773
4504 238 4 27.0471 41.8317 11.1597 15.999 -0.35515
4505 238 2 27.6395 41.3883 9.95369 12.011 0.03297
4506 238 2 26.2272 42.9838 11.0379 12.011 0.01762
4507 238 2 27.0645 44.1963 10.6012 12.011 -0.23743
4508 238 2 26.3423 45.5406 10.6807 12.011 -0.24423
4509 238 3 28.3924 40.1166 10.2533 12.011 -0.1837
4510 238 3 29.7169 39.9703 10.1261 12.011 -0.23415
4511 238 1 30.3543 40.7813 9.81118 1.008 0.12909
4512 238 1 30.1878 39.0238 10.3417 1.008 0.12909
4513 238 1 27.8062 39.2767 10.5842 1.008 0.15086
4514 238 1 28.3517 42.1181 9.58182 1.008 0.07222
4515 238 1 26.8832 41.2078 9.1871 1.008 0.07222
4516 238 1 25.4039 42.803 10.3467 1.008 0.09202
4517 238 1 25.7879 43.1738 12.0178 1.008 0.09202
4518 238 1 27.3684 44.0749 9.56538 1.008 0.10167
4519 238 1 27.9663 44.251 11.2105 1.008 0.10167
4520 238 1 26.9054 46.3042 10.1366 1.008 0.08773
4521 238 1 25.3609 45.4753 10.2187 1.008 0.08773
4522 238 1 26.2278 45.8804 11.7118 1.008 0.08773
4523 239 4 41.8216 44.1665 41.0331 15.999 -0.35515
4524 239 2 42.2532 43.6456 42.2785 12.011 0.03297
4525 239 2 40.4863 44.6411 41.0804 12.011 0.01762
4526 239 2 39.5083 43.4584 41.1653 12.011 -0.23743
4527 239 2 38.04 43.8545 41.0031 12.011 -0.24423
4528 239 3 43.74 43.4047 42.221 12.011 -0.1837
4529 239 3 44.3066 42.1928 42.212 12.011 -0.23415
4530 239 1 43.7144 41.2933 42.2324 1.008 0.12909
4531 239 1 45.3797 42.083 42.1806 1.008 0.12909
4532 239 1 44.3686 44.2793 42.1954 1.008 0.15086
4533 239 1 41.7519 42.7061 42.497 1.008 0.07222
4534 239 1 42.0419 44.3412 43.091 1.008 0.07222
4535 239 1 40.3525 45.3183 41.9235 1.008 0.09202
4536 239 1 40.2954 45.2189 40.1749 1.008 0.09202
4537 239 1 39.6013 42.9541 42.1259 1.008 0.10167
4538 239 1 39.7558 42.7243 40.4015 1.008 0.10167
4539 239 1 37.3951 43.0311 41.3218 1.008 0.08773
4540 239 1 37.7882 44.7231 41.6116 1.008 0.08773
4541 239 1 37.7975 44.0773 39.9626 1.008 0.08773
4542 240 4 28.9542 40.1262 28.1082 15.999 -0.35515
4543 240 2 27.7626 40.7878 27.7081 12.011 0.03297
4544 240 2 28.8466 39.4525 29.3501 12.011 0.01762
4545 240 2 28.8963 40.4761 30.4937 12.011 -0.23743
4546 240 2 28.9763 39.8684 31.8975 12.011 -0.24423
4547 240 3 27.8748 41.1409 26.2401 12.011 -0.1837
4548 240 3 27.975 42.3793 25.7408 12.011 -0.23415
4549 240 1 27.9899 43.2564 26.3703 1.008 0.12909
4550 240 1 28.0522 42.5343 24.6739 1.008 0.12909
4551 240 1 27.8721 40.3172 25.5474 1.008 0.15086
4552 240 1 27.6034 41.6852 28.3014 1.008 0.07222
4553 240 1 26.8933 40.1401 27.8303 1.008 0.07222
4554 240 1 27.9424 38.8456 29.3892 1.008 0.09202
4555 240 1 29.6929 38.768 29.4313 1.008 0.09202
4556 240 1 28.0175 41.1197 30.4616 1.008 0.10167
4557 240 1 29.7755 41.1064 30.3641 1.008 0.10167
4558 240 1 28.742 40.6329 32.6439 1.008 0.08773
4559 240 1 28.2684 39.051 32.0374 1.008 0.08773
4560 240 1 29.9811 39.5007 32.1158 1.008 0.08773
4561 241 4 3.93196 18.8431 50.1608 15.999 -0.35515
4562 241 2 2.59081 18.715 50.6015 12.011 0.03297
4563 241 2 4.65836 19.8278 50.8859 12.011 0.01762
4564 241 2 4.13238 21.2314 50.5389 12.011 -0.23743
4565 241 2 4.94093 22.4017 51.097 12.011 -0.24423
4566 241 3 1.96377 17.4996 49.9647 12.011 -0.1837
4567 241 3 0.948343 17.5422 49.0941 12.011 -0.23415
4568 241 1 0.517961 18.4781 48.777 1.008 0.12909
4569 241 1 0.528009 16.6376 48.6848 1.008 0.12909
4570 241 1 2.3664 16.5429 50.2535 1.008 0.15086
4571 241 1 2.00548 19.5891 50.3246 1.008 0.07222
4572 241 1 2.55425 18.6044 51.6852 1.008 0.07222
4573 241 1 4.61468 19.6361 51.9598 1.008 0.09202
4574 241 1 5.70523 19.7479 50.5933 1.008 0.09202
4575 241 1 3.10916 21.3596 50.8845 1.008 0.10167
4576 241 1 4.12116 21.3356 49.4564 1.008 0.10167
4577 241 1 4.32192 23.3015 51.1392 1.008 0.08773
4578 241 1 5.32123 22.2061 0.113937 1.008 0.08773
4579 241 1 5.77496 22.6261 50.4347 1.008 0.08773
4580 242 4 31.091 40.9026 17.5136 15.999 -0.35515
4581 242 2 31.129 41.7277 18.6602 12.011 0.03297
4582 242 2 31.9715 39.7996 17.6527 12.011 0.01762
4583 242 2 33.4242 40.2711 17.5734 12.011 -0.23743
4584 242 2 34.3675 39.1096 17.3029 12.011 -0.24423
4585 242 3 29.9782 42.6975 18.6125 12.011 -0.1837
4586 242 3 30.0989 44.003 18.3453 12.011 -0.23415
4587 242 1 31.0565 44.4498 18.1287 1.008 0.12909
4588 242 1 29.2349 44.648 18.3482 1.008 0.12909
4589 242 1 29.0053 42.2876 18.8223 1.008 0.15086
4590 242 1 32.0658 42.2757 18.6889 1.008 0.07222
4591 242 1 31.0547 41.1353 19.573 1.008 0.07222
4592 242 1 31.7941 39.2532 18.5836 1.008 0.09202
4593 242 1 31.7937 39.0973 16.8388 1.008 0.09202
4594 242 1 33.7369 40.7491 18.5022 1.008 0.10167
4595 242 1 33.5509 41.0096 16.7811 1.008 0.10167
4596 242 1 35.3979 39.4382 17.4323 1.008 0.08773
4597 242 1 34.1787 38.2905 17.9972 1.008 0.08773
4598 242 1 34.254 38.7349 16.2856 1.008 0.08773
4599 243 4 14.3657 24.5324 47.4265 15.999 -0.35515
4600 243 2 14.5607 23.7608 48.5966 12.011 0.03297
4601 243 2 13.9559 25.8624 47.6938 12.011 0.01762
4602 243 2 12.4936 25.8945 48.1637 12.011 -0.23743
4603 243 2 11.9328 27.3136 48.2791 12.011 -0.24423
4604 243 3 15.2217 22.4683 48.186 12.011 -0.1837
4605 243 3 14.6114 21.2777 48.1863 12.011 -0.23415
4606 243 1 13.5793 21.1743 48.4821 1.008 0.12909
4607 243 1 15.1388 20.3859 47.8833 1.008 0.12909
4608 243 1 16.2509 22.5362 47.8669 1.008 0.15086
4609 243 1 13.6106 23.5466 49.0846 1.008 0.07222
4610 243 1 15.2046 24.2774 49.3096 1.008 0.07222
4611 243 1 14.6161 26.3372 48.4226 1.008 0.09202
4612 243 1 14.0517 26.425 46.7651 1.008 0.09202
4613 243 1 12.3948 25.4175 49.1374 1.008 0.10167
4614 243 1 11.8663 25.3324 47.471 1.008 0.10167
4615 243 1 11.0278 27.3162 48.8907 1.008 0.08773
4616 243 1 12.6502 27.9945 48.7397 1.008 0.08773
4617 243 1 11.661 27.7102 47.2995 1.008 0.08773
4618 244 4 15.2829 25.205 12.7211 15.999 -0.35515
4619 244 2 15.1947 24.1794 11.7472 12.011 0.03297
4620 244 2 15.1449 24.7146 14.045 12.011 0.01762
4621 244 2 13.6939 24.2766 14.3062 12.011 -0.23743
4622 244 2 13.4191 23.9196 15.7677 12.011 -0.24423
4623 244 3 15.5681 24.7368 10.3979 12.011 -0.1837
4624 244 3 14.7128 24.8944 9.38293 12.011 -0.23415
4625 244 1 13.667 24.6488 9.47069 1.008 0.12909
4626 244 1 15.0626 25.2779 8.44081 1.008 0.12909
4627 244 1 16.6015 25.0098 10.2554 1.008 0.15086
4628 244 1 14.1836 23.7838 11.6915 1.008 0.07222
4629 244 1 15.8712 23.3585 11.9834 1.008 0.07222
4630 244 1 15.8421 23.8949 14.2258 1.008 0.09202
4631 244 1 15.4145 25.5187 14.7316 1.008 0.09202
4632 244 1 13.4441 23.4015 13.7093 1.008 0.10167
4633 244 1 13.0097 25.0724 14.0099 1.008 0.10167
4634 244 1 12.4763 23.3734 15.8504 1.008 0.08773
4635 244 1 14.2027 23.2866 16.1833 1.008 0.08773
4636 244 1 13.3356 24.8138 16.3881 1.008 0.08773
4637 245 4 12.9288 26.1461 36.3262 15.999 -0.35515
4638 245 2 11.9004 26.6694 35.5132 12.011 0.03297
4639 245 2 12.8985 24.741 36.4816 12.011 0.01762
4640 245 2 11.5862 24.2462 37.0965 12.011 -0.23743
4641 245 2 11.5398 22.7247 37.2433 12.011 -0.24423
4642 245 3 12.2338 28.1144 35.2584 12.011 -0.1837
4643 245 3 11.5445 29.1124 35.8101 12.011 -0.23415
4644 245 1 10.7199 28.8728 36.452 1.008 0.12909
4645 245 1 11.7616 30.1543 35.6449 1.008 0.12909
4646 245 1 13.0667 28.3348 34.616 1.008 0.15086
4647 245 1 10.937 26.6244 36.0175 1.008 0.07222
4648 245 1 11.8089 26.1347 34.5763 1.008 0.07222
4649 245 1 13.1032 24.2552 35.5358 1.008 0.09202
4650 245 1 13.7174 24.477 37.1495 1.008 0.09202
4651 245 1 10.7198 24.5267 36.5021 1.008 0.10167
4652 245 1 11.4513 24.7159 38.0689 1.008 0.10167
4653 245 1 10.5116 22.4128 37.4531 1.008 0.08773
4654 245 1 11.8515 22.2216 36.3294 1.008 0.08773
4655 245 1 12.1792 22.394 38.066 1.008 0.08773
4656 246 4 22.6032 13.3088 27.9084 15.999 -0.35515
4657 246 2 23.7904 13.5877 28.6304 12.011 0.03297
4658 246 2 22.7578 12.3092 26.9086 12.011 0.01762
4659 246 2 23.5903 12.8254 25.7157 12.011 -0.23743
4660 246 2 23.7225 11.8427 24.5478 12.011 -0.24423
4661 246 3 23.4697 14.4965 29.7956 12.011 -0.1837
4662 246 3 23.9324 15.7443 29.9247 12.011 -0.23415
4663 246 1 24.5636 16.1717 29.1653 1.008 0.12909
4664 246 1 23.6811 16.3623 30.7722 1.008 0.12909
4665 246 1 22.8288 14.0987 30.5659 1.008 0.15086
4666 246 1 24.5116 14.082 27.986 1.008 0.07222
4667 246 1 24.244 12.6733 29.0094 1.008 0.07222
4668 246 1 23.1932 11.4053 27.3394 1.008 0.09202
4669 246 1 21.7585 12.0435 26.5615 1.008 0.09202
4670 246 1 24.5948 13.0765 26.0419 1.008 0.10167
4671 246 1 23.1508 13.7363 25.3132 1.008 0.10167
4672 246 1 24.5345 12.1511 23.8851 1.008 0.08773
4673 246 1 23.9452 10.8304 24.8871 1.008 0.08773
4674 246 1 22.8138 11.8166 23.9443 1.008 0.08773
4675 247 4 2.701 5.22054 38.0367 15.999 -0.35515
4676 247 2 1.99453 5.59658 36.8662 12.011 0.03297
4677 247 2 1.91886 5.33617 39.2161 12.011 0.01762
4678 247 2 1.66297 6.81427 39.5547 12.011 -0.23743
4679 247 2 0.994342 7.02584 40.9141 12.011 -0.24423
4680 247 3 2.82026 5.25073 35.6513 12.011 -0.1837
4681 247 3 3.38309 6.15408 34.84 12.011 -0.23415
4682 247 1 3.2872 7.21172 35.0205 1.008 0.12909
4683 247 1 3.95127 5.84722 33.9761 1.008 0.12909
4684 247 1 2.9462 4.20205 35.4347 1.008 0.15086
4685 247 1 1.80224 6.66641 36.8608 1.008 0.07222
4686 247 1 1.03845 5.07722 36.8033 1.008 0.07222
4687 247 1 0.979231 4.79105 39.1116 1.008 0.09202
4688 247 1 2.47028 4.86654 40.0324 1.008 0.09202
4689 247 1 1.01925 7.27426 38.8072 1.008 0.10167
4690 247 1 2.60429 7.36424 39.5458 1.008 0.10167
4691 247 1 0.59988 8.04244 40.9846 1.008 0.08773
4692 247 1 0.1612 6.34053 41.0679 1.008 0.08773
4693 247 1 1.70424 6.89288 41.7325 1.008 0.08773
4694 248 4 2.61355 43.1024 33.0265 15.999 -0.35515
4695 248 2 2.69241 43.0488 31.6102 12.011 0.03297
4696 248 2 3.70526 42.4507 33.6702 12.011 0.01762
4697 248 2 3.72045 40.9421 33.3487 12.011 -0.23743
4698 248 2 4.7149 40.08 34.1364 12.011 -0.24423
4699 248 3 1.6217 43.9057 30.9787 12.011 -0.1837
4700 248 3 0.701485 43.4373 30.127 12.011 -0.23415
4701 248 1 0.672828 42.3939 29.8533 1.008 0.12909
4702 248 1 51.9531 44.0907 29.6821 1.008 0.12909
4703 248 1 1.62334 44.9545 31.2206 1.008 0.15086
4704 248 1 2.53243 42.0317 31.2688 1.008 0.07222
4705 248 1 3.67223 43.3739 31.2624 1.008 0.07222
4706 248 1 4.63815 42.9239 33.3737 1.008 0.09202
4707 248 1 3.60731 42.597 34.7458 1.008 0.09202
4708 248 1 3.96332 40.7865 32.2996 1.008 0.10167
4709 248 1 2.72372 40.5336 33.5093 1.008 0.10167
4710 248 1 4.85829 39.1271 33.619 1.008 0.08773
4711 248 1 5.69653 40.5434 34.2199 1.008 0.08773
4712 248 1 4.35265 39.8569 35.1414 1.008 0.08773
4713 249 4 27.1256 15.422 11.4184 15.999 -0.35515
4714 249 2 27.3569 15.9165 10.1144 12.011 0.03297
4715 249 2 27.3284 14.0245 11.4901 12.011 0.01762
4716 249 2 26.222 13.2876 10.7212 12.011 -0.23743
4717 249 2 26.2834 11.7754 10.8999 12.011 -0.24423
4718 249 3 27.2407 17.4109 10.1554 12.011 -0.1837
4719 249 3 26.1796 18.0651 9.68049 12.011 -0.23415
4720 249 1 25.3392 17.5576 9.24629 1.008 0.12909
4721 249 1 26.139 19.1372 9.68916 1.008 0.12909
4722 249 1 28.062 17.9677 10.5777 1.008 0.15086
4723 249 1 26.6005 15.5614 9.41583 1.008 0.07222
4724 249 1 28.3426 15.6352 9.73959 1.008 0.07222
4725 249 1 28.3136 13.7612 11.1049 1.008 0.09202
4726 249 1 27.3061 13.731 12.5394 1.008 0.09202
4727 249 1 26.2901 13.4761 9.65206 1.008 0.10167
4728 249 1 25.2439 13.6431 11.0468 1.008 0.10167
4729 249 1 25.6691 11.2818 10.1441 1.008 0.08773
4730 249 1 27.3029 11.4085 10.7908 1.008 0.08773
4731 249 1 25.9144 11.482 11.8834 1.008 0.08773
4732 250 4 44.2024 44.9212 11.4492 15.999 -0.35515
4733 250 2 43.702 44.6176 10.1581 12.011 0.03297
4734 250 2 44.6365 43.772 12.1562 12.011 0.01762
4735 250 2 43.4274 42.9279 12.5908 12.011 -0.23743
4736 250 2 43.7928 41.7862 13.5395 12.011 -0.24423
4737 250 3 43.4672 45.914 9.42554 12.011 -0.1837
4738 250 3 42.2574 46.4263 9.17558 12.011 -0.23415
4739 250 1 41.3561 45.9266 9.49064 1.008 0.12909
4740 250 1 42.1513 47.3598 8.64712 1.008 0.12909
4741 250 1 44.3447 46.4478 9.09656 1.008 0.15086
4742 250 1 42.761 44.0766 10.2254 1.008 0.07222
4743 250 1 44.407 44.0083 9.59179 1.008 0.07222
4744 250 1 45.331 43.1853 11.5524 1.008 0.09202
4745 250 1 45.1858 44.1077 13.0371 1.008 0.09202
4746 250 1 42.9362 42.4856 11.7261 1.008 0.10167
4747 250 1 42.692 43.5633 13.0849 1.008 0.10167
4748 250 1 42.9694 41.0704 13.6005 1.008 0.08773
4749 250 1 44.6748 41.2444 13.1991 1.008 0.08773
4750 250 1 43.9834 42.157 14.548 1.008 0.08773
4751 251 4 25.1237 37.1723 11.3988 15.999 -0.35515
4752 251 2 25.2488 37.6214 10.0638 12.011 0.03297
4753 251 2 25.7691 35.9367 11.6274 12.011 0.01762
4754 251 2 24.9316 34.762 11.1335 12.011 -0.23743
4755 251 2 25.4563 33.4537 11.7326 12.011 -0.24423
4756 251 3 24.7334 39.0418 10.0342 12.011 -0.1837
4757 251 3 23.5961 39.4265 9.44437 12.011 -0.23415
4758 251 1 22.9565 38.7221 8.93965 1.008 0.12909
4759 251 1 23.2894 40.4604 9.4649 1.008 0.12909
4760 251 1 25.3334 39.7812 10.5438 1.008 0.15086
4761 251 1 24.674 36.9832 9.39467 1.008 0.07222
4762 251 1 26.2873 37.6112 9.72706 1.008 0.07222
4763 251 1 26.7722 35.9309 11.2001 1.008 0.09202
4764 251 1 25.8778 35.803 12.6989 1.008 0.09202
4765 251 1 24.9422 34.7164 10.0437 1.008 0.10167
4766 251 1 23.8949 34.8913 11.4426 1.008 0.10167
4767 251 1 25.0996 32.5885 11.1669 1.008 0.08773
4768 251 1 26.5482 33.439 11.7315 1.008 0.08773
4769 251 1 25.1276 33.3448 12.7695 1.008 0.08773
4770 252 4 6.21834 26.8266 14.4856 15.999 -0.35515
4771 252 2 5.99047 26.6004 13.1049 12.011 0.03297
4772 252 2 6.2273 28.2048 14.8258 12.011 0.01762
4773 252 2 7.49245 28.8849 14.2766 12.011 -0.23743
4774 252 2 7.68068 30.3211 14.7673 12.011 -0.24423
4775 252 3 5.77955 25.124 12.8731 12.011 -0.1837
4776 252 3 6.62892 24.3313 12.207 12.011 -0.23415
4777 252 1 7.54944 24.7091 11.7919 1.008 0.12909
4778 252 1 6.41167 23.2839 12.0661 1.008 0.12909
4779 252 1 4.87249 24.7007 13.2745 1.008 0.15086
4780 252 1 6.84203 26.9311 12.5145 1.008 0.07222
4781 252 1 5.10732 27.1416 12.7642 1.008 0.07222
4782 252 1 5.32489 28.6986 14.4615 1.008 0.09202
4783 252 1 6.21484 28.2829 15.9141 1.008 0.09202
4784 252 1 7.47018 28.9166 13.1885 1.008 0.10167
4785 252 1 8.373 28.3087 14.5633 1.008 0.10167
4786 252 1 8.42486 30.8319 14.1516 1.008 0.08773
4787 252 1 6.75701 30.8947 14.7079 1.008 0.08773
4788 252 1 8.03436 30.3484 15.7996 1.008 0.08773
4789 253 4 36.7977 41.4043 17.6604 15.999 -0.35515
4790 253 2 36.5902 42.8046 17.6135 12.011 0.03297
4791 253 2 37.8603 40.9586 16.8313 12.011 0.01762
4792 253 2 37.5313 41.1345 15.341 12.011 -0.23743
4793 253 2 38.5835 40.4945 14.4331 12.011 -0.24423
4794 253 3 35.531 43.1869 18.6175 12.011 -0.1837
4795 253 3 34.3418 43.7035 18.2858 12.011 -0.23415
4796 253 1 34.0608 43.8485 17.256 1.008 0.12909
4797 253 1 33.6214 43.9807 19.0398 1.008 0.12909
4798 253 1 35.7656 43.0375 19.6594 1.008 0.15086
4799 253 1 36.2499 43.1106 16.6268 1.008 0.07222
4800 253 1 37.5099 43.3429 17.8431 1.008 0.07222
4801 253 1 38.7915 41.4626 17.0944 1.008 0.09202
4802 253 1 38.0135 39.8976 17.0209 1.008 0.09202
4803 253 1 37.4749 42.189 15.0823 1.008 0.10167
4804 253 1 36.5562 40.7001 15.1144 1.008 0.10167
4805 253 1 38.5055 40.8943 13.4181 1.008 0.08773
4806 253 1 39.594 40.6992 14.7902 1.008 0.08773
4807 253 1 38.4529 39.4117 14.3751 1.008 0.08773
4808 254 4 8.4533 28.1899 42.8304 15.999 -0.35515
4809 254 2 7.49704 27.2687 43.3266 12.011 0.03297
4810 254 2 7.91182 29.4819 42.5982 12.011 0.01762
4811 254 2 6.93247 29.4506 41.4129 12.011 -0.23743
4812 254 2 6.50486 30.8369 40.9266 12.011 -0.24423
4813 254 3 8.20541 26.0098 43.7627 12.011 -0.1837
4814 254 3 8.03854 24.8125 43.1887 12.011 -0.23415
4815 254 1 7.37506 24.6732 42.3516 1.008 0.12909
4816 254 1 8.56855 23.9443 43.5488 1.008 0.12909
4817 254 1 8.88091 26.0976 44.5977 1.008 0.15086
4818 254 1 6.77089 27.0147 42.5578 1.008 0.07222
4819 254 1 6.9614 27.6858 44.1791 1.008 0.07222
4820 254 1 7.4253 29.8657 43.4968 1.008 0.09202
4821 254 1 8.73976 30.1558 42.3733 1.008 0.09202
4822 254 1 6.02981 28.9078 41.6834 1.008 0.10167
4823 254 1 7.38689 28.9191 40.5775 1.008 0.10167
4824 254 1 5.66142 30.7512 40.237 1.008 0.08773
4825 254 1 6.18978 31.4737 41.7535 1.008 0.08773
4826 254 1 7.31404 31.3397 40.3937 1.008 0.08773
4827 255 4 41.5432 27.5857 47.269 15.999 -0.35515
4828 255 2 41.8336 28.9146 47.6682 12.011 0.03297
4829 255 2 42.6047 26.9845 46.546 12.011 0.01762
4830 255 2 42.7283 27.5766 45.1342 12.011 -0.23743
4831 255 2 43.7451 26.8309 44.2677 12.011 -0.24423
4832 255 3 40.7377 29.3993 48.5862 12.011 -0.1837
4833 255 3 39.8481 30.3458 48.2681 12.011 -0.23415
4834 255 1 39.8548 30.8217 47.3022 1.008 0.12909
4835 255 1 39.094 30.6566 48.9735 1.008 0.12909
4836 255 1 40.6832 28.9448 49.5614 1.008 0.15086
4837 255 1 41.8918 29.5717 46.8034 1.008 0.07222
4838 255 1 42.7855 28.9674 48.1966 1.008 0.07222
4839 255 1 43.5451 27.0905 47.0867 1.008 0.09202
4840 255 1 42.3948 25.9164 46.4697 1.008 0.09202
4841 255 1 43.0357 28.6207 45.1779 1.008 0.10167
4842 255 1 41.7601 27.5534 44.6337 1.008 0.10167
4843 255 1 43.9866 27.416 43.3766 1.008 0.08773
4844 255 1 44.677 26.651 44.8047 1.008 0.08773
4845 255 1 43.3522 25.8688 43.9329 1.008 0.08773
4846 256 4 12.5939 34.7252 31.9456 15.999 -0.35515
4847 256 2 13.3306 33.592 31.5191 12.011 0.03297
4848 256 2 13.3702 35.9126 31.9662 12.011 0.01762
4849 256 2 14.4089 35.8627 33.0968 12.011 -0.23743
4850 256 2 15.1116 37.2019 33.3179 12.011 -0.24423
4851 256 3 12.3822 32.4318 31.3427 12.011 -0.1837
4852 256 3 12.375 31.3383 32.1148 12.011 -0.23415
4853 256 1 13.0603 31.2233 32.938 1.008 0.12909
4854 256 1 11.6774 30.5353 31.9354 1.008 0.12909
4855 256 1 11.6747 32.5062 30.5326 1.008 0.15086
4856 256 1 14.0818 33.3207 32.2572 1.008 0.07222
4857 256 1 13.8358 33.7878 30.573 1.008 0.07222
4858 256 1 13.8541 36.0768 31.0021 1.008 0.09202
4859 256 1 12.6954 36.7541 32.1333 1.008 0.09202
4860 256 1 15.1753 35.1184 32.8871 1.008 0.10167
4861 256 1 13.9267 35.5713 34.0305 1.008 0.10167
4862 256 1 15.9969 37.0671 33.9451 1.008 0.08773
4863 256 1 15.4339 37.6528 32.3795 1.008 0.08773
4864 256 1 14.452 37.9076 33.8222 1.008 0.08773
4865 257 4 30.1667 39.9822 45.4152 15.999 -0.35515
4866 257 2 31.0374 39.8631 46.5289 12.011 0.03297
4867 257 2 29.2999 41.1046 45.4934 12.011 0.01762
4868 257 2 28.2596 40.9216 46.6126 12.011 -0.23743
4869 257 2 27.2191 42.0434 46.6703 12.011 -0.24423
4870 257 3 32.0878 38.8138 46.2596 12.011 -0.1837
4871 257 3 32.1909 37.6572 46.9246 12.011 -0.23415
4872 257 1 31.4975 37.3942 47.7057 1.008 0.12909
4873 257 1 32.9713 36.9498 46.6965 1.008 0.12909
4874 257 1 32.8045 39.042 45.4865 1.008 0.15086
4875 257 1 30.4861 39.5802 47.4207 1.008 0.07222
4876 257 1 31.5435 40.8035 46.7294 1.008 0.07222
4877 257 1 29.8692 42.0234 45.6349 1.008 0.09202
4878 257 1 28.7888 41.198 44.5337 1.008 0.09202
4879 257 1 28.7444 40.8876 47.5865 1.008 0.10167
4880 257 1 27.7387 39.9721 46.4794 1.008 0.10167
4881 257 1 26.6642 41.9964 47.611 1.008 0.08773
4882 257 1 27.6799 43.0293 46.6103 1.008 0.08773
4883 257 1 26.4943 41.9563 45.8597 1.008 0.08773
4884 258 4 47.7117 7.09883 32.5931 15.999 -0.35515
4885 258 2 48.8668 7.42296 31.8371 12.011 0.03297
4886 258 2 46.5136 7.315 31.866 12.011 0.01762
4887 258 2 46.3262 8.8241 31.6608 12.011 -0.23743
4888 258 2 44.9646 9.22347 31.1256 12.011 -0.24423
4889 258 3 50.0907 6.95218 32.5788 12.011 -0.1837
4890 258 3 51.0153 7.76504 33.1034 12.011 -0.23415
4891 258 1 50.9257 8.83675 33.037 1.008 0.12909
4892 258 1 51.8845 7.36565 33.6007 1.008 0.12909
4893 258 1 50.2175 5.88619 32.6639 1.008 0.15086
4894 258 1 48.9507 8.49628 31.684 1.008 0.07222
4895 258 1 48.8373 6.94153 30.8596 1.008 0.07222
4896 258 1 46.5327 6.77995 30.9136 1.008 0.09202
4897 258 1 45.6828 6.90989 32.4475 1.008 0.09202
4898 258 1 47.0667 9.21541 30.9661 1.008 0.10167
4899 258 1 46.4662 9.33064 32.6123 1.008 0.10167
4900 258 1 44.9746 10.2389 30.727 1.008 0.08773
4901 258 1 44.6603 8.545 30.3298 1.008 0.08773
4902 258 1 44.2273 9.21662 31.924 1.008 0.08773
4903 259 4 17.6069 31.577 43.1404 15.999 -0.35515
4904 259 2 18.1002 32.2481 44.2871 12.011 0.03297
4905 259 2 16.4023 32.1481 42.6499 12.011 0.01762
4906 259 2 15.2396 31.9039 43.6156 12.011 -0.23743
4907 259 2 13.8905 32.3375 43.0546 12.011 -0.24423
4908 259 3 19.4676 31.7118 44.6175 12.011 -0.1837
4909 259 3 19.7205 30.8531 45.6108 12.011 -0.23415
4910 259 1 18.9354 30.475 46.2424 1.008 0.12909
4911 259 1 20.7234 30.5042 45.7978 1.008 0.12909
4912 259 1 20.2819 32.0496 43.9969 1.008 0.15086
4913 259 1 17.4555 32.0691 45.1406 1.008 0.07222
4914 259 1 18.1599 33.3252 44.1271 1.008 0.07222
4915 259 1 16.5183 33.2135 42.4517 1.008 0.09202
4916 259 1 16.1641 31.6649 41.7015 1.008 0.09202
4917 259 1 15.3809 32.4073 44.5703 1.008 0.10167
4918 259 1 15.1894 30.8393 43.7987 1.008 0.10167
4919 259 1 13.1222 32.3506 43.8327 1.008 0.08773
4920 259 1 13.9514 33.3328 42.6123 1.008 0.08773
4921 259 1 13.562 31.6351 42.2857 1.008 0.08773
4922 260 4 33.5332 9.40342 37.6698 15.999 -0.35515
4923 260 2 33.115 8.0603 37.4916 12.011 0.03297
4924 260 2 33.4112 9.83738 39.0166 12.011 0.01762
4925 260 2 31.9281 9.97807 39.3992 12.011 -0.23743
4926 260 2 31.6894 10.697 40.7276 12.011 -0.24423
4927 260 3 33.4995 7.58564 36.1122 12.011 -0.1837
4928 260 3 32.625 7.30149 35.14 12.011 -0.23415
4929 260 1 31.5632 7.41423 35.285 1.008 0.12909
4930 260 1 32.9615 6.94349 34.1798 1.008 0.12909
4931 260 1 34.5531 7.45819 35.9219 1.008 0.15086
4932 260 1 32.036 7.97852 37.6012 1.008 0.07222
4933 260 1 33.5837 7.40887 38.2289 1.008 0.07222
4934 260 1 33.9284 9.15513 39.6933 1.008 0.09202
4935 260 1 33.9048 10.806 39.104 1.008 0.09202
4936 260 1 31.4483 9.00265 39.4621 1.008 0.10167
4937 260 1 31.4087 10.5353 38.6257 1.008 0.10167
4938 260 1 30.6462 10.5829 41.0342 1.008 0.08773
4939 260 1 32.3141 10.2939 41.5243 1.008 0.08773
4940 260 1 31.8885 11.7674 40.6403 1.008 0.08773
4941 261 4 38.0257 19.8717 36.643 15.999 -0.35515
4942 261 2 37.041 19.4587 35.7123 12.011 0.03297
4943 261 2 39.1005 20.5842 36.0567 12.011 0.01762
4944 261 2 39.933 19.651 35.1765 12.011 -0.23743
4945 261 2 41.202 20.3099 34.6436 12.011 -0.24423
4946 261 3 35.8271 19.053 36.5061 12.011 -0.1837
4947 261 3 35.342 17.8099 36.5315 12.011 -0.23415
4948 261 1 35.7972 17.0284 35.9512 1.008 0.12909
4949 261 1 34.4723 17.5641 37.1206 1.008 0.12909
4950 261 1 35.3352 19.8178 37.0882 1.008 0.15086
4951 261 1 37.3901 18.6157 35.1211 1.008 0.07222
4952 261 1 36.7777 20.2567 35.0214 1.008 0.07222
4953 261 1 38.7513 21.4349 35.4725 1.008 0.09202
4954 261 1 39.715 20.9815 36.8662 1.008 0.09202
4955 261 1 39.3541 19.3087 34.3201 1.008 0.10167
4956 261 1 40.2207 18.7755 35.7532 1.008 0.10167
4957 261 1 41.6114 19.7234 33.8175 1.008 0.08773
4958 261 1 41.0059 21.3151 34.2727 1.008 0.08773
4959 261 1 41.9669 20.3721 35.4196 1.008 0.08773
4960 262 4 8.74149 25.1924 38.2108 15.999 -0.35515
4961 262 2 8.44458 24.6311 39.4765 12.011 0.03297
4962 262 2 7.68763 25.9814 37.7069 12.011 0.01762
4963 262 2 6.53641 25.0695 37.269 12.011 -0.23743
4964 262 2 5.41841 25.8293 36.569 12.011 -0.24423
4965 262 3 9.69797 23.9631 39.9592 12.011 -0.1837
4966 262 3 9.89757 22.6452 40.0278 12.011 -0.23415
4967 262 1 9.14019 21.9395 39.7363 1.008 0.12909
4968 262 1 10.8528 22.2574 40.3471 1.008 0.12909
4969 262 1 10.5033 24.6217 40.2191 1.008 0.15086
4970 262 1 7.66011 23.8816 39.42 1.008 0.07222
4971 262 1 8.15271 25.3979 40.195 1.008 0.07222
4972 262 1 7.35485 26.7078 38.4508 1.008 0.09202
4973 262 1 8.06903 26.5395 36.8507 1.008 0.09202
4974 262 1 6.08975 24.5766 38.1286 1.008 0.10167
4975 262 1 6.90766 24.286 36.6074 1.008 0.10167
4976 262 1 4.4852 25.2641 36.6296 1.008 0.08773
4977 262 1 5.25155 26.7936 37.0427 1.008 0.08773
4978 262 1 5.65155 25.996 35.5169 1.008 0.08773
4979 263 4 28.1926 34.0396 20.8353 15.999 -0.35515
4980 263 2 27.7934 34.5477 22.0979 12.011 0.03297
4981 263 2 28.6136 32.6863 20.9026 12.011 0.01762
4982 263 2 29.9729 32.5752 21.6121 12.011 -0.23743
4983 263 2 30.5717 31.1698 21.5616 12.011 -0.24423
4984 263 3 27.1503 35.8973 21.901 12.011 -0.1837
4985 263 3 27.6881 37.0521 22.3076 12.011 -0.23415
4986 263 1 28.6448 37.08 22.8021 1.008 0.12909
4987 263 1 27.1798 37.9899 22.1499 1.008 0.12909
4988 263 1 26.1938 35.9112 21.4029 1.008 0.15086
4989 263 1 28.6488 34.6577 22.7611 1.008 0.07222
4990 263 1 27.0774 33.8832 22.5812 1.008 0.07222
4991 263 1 27.8605 32.0742 21.4023 1.008 0.09202
4992 263 1 28.7052 32.3084 19.8835 1.008 0.09202
4993 263 1 29.8851 32.8595 22.6598 1.008 0.10167
4994 263 1 30.6889 33.262 21.1645 1.008 0.10167
4995 263 1 31.3781 31.0834 22.2926 1.008 0.08773
4996 263 1 29.8326 30.4038 21.7941 1.008 0.08773
4997 263 1 30.9955 30.9534 20.5793 1.008 0.08773
