LAMMPS (29 Sep 2021 - Update 3)
KOKKOS mode is enabled (src/KOKKOS/kokkos.cpp:97)
  will use up to 0 GPU(s) per node
  using 1 OpenMP thread(s) per MPI task
package kokkos
#------------------------------ Setup Files ---------------------------------
variable			filename index ./Step0/S0_Min_Example



#----------------------------- Box and atoms --------------------------------
units           	real
dimension       	3
boundary        	p p p
atom_style      	full


#------------------------ Defining the interactions -------------------------
pair_style      	lj/cut/coul/cut 12.0 12.0
bond_style      	harmonic
angle_style     	harmonic
dihedral_style 		opls
improper_style     	cvff
pair_modify 		mix geometric tail yes
special_bonds   	lj/coul 0.0 0.0 0.0
read_data  			InitialStructure/Example.data
Reading data file ...
  orthogonal box = (0.0000000 0.0000000 0.0000000) to (51.985757 51.985757 51.985757)
  2 by 4 by 7 MPI processor grid
  reading atoms ...
  4997 atoms
  scanning bonds ...
  1 = max bonds/atom
  scanning angles ...
  6 = max angles/atom
  scanning dihedrals ...
  9 = max dihedrals/atom
  scanning impropers ...
  1 = max impropers/atom
  reading bonds ...
  4734 bonds
  reading angles ...
  8153 angles
  reading dihedrals ...
  8942 dihedrals
  reading impropers ...
  526 impropers
Finding 1-2 1-3 1-4 neighbors ...
  special bond factors lj:    0        0        0       
  special bond factors coul:  0        0        0       
     4 = max # of 1-2 neighbors
     6 = max # of 1-3 neighbors
    11 = max # of 1-4 neighbors
    14 = max # of special neighbors
  special bonds CPU = 0.001 seconds
  read_data CPU = 0.162 seconds
neighbor        	2.0 bin
neigh_modify 		every 1 delay 0 check yes


#---------------------------Simulation Variables---------------------------
variable        	eqmT 		equal 234 			# [K] Equilibration Temp
variable        	eqmP 		equal 1				# [atm] Equilibrium pressure
variable 			nThermo 	equal 10 			# Write every N timesteps
variable 			nDump 		equal 10			# Dump every N timesteps (typically match thermo)
reset_timestep  	0













#---------------------------- Minimize Energy -----------------------------
velocity        	all create ${eqmT} 482648
velocity        	all create 234 482648
# No ensemble
thermo          	${nThermo}
thermo          	10
fix 				thermo_print all print ${nThermo} "$(step),$(temp),$(press),$(density),$(pxx),$(pyy),$(pzz),$(pxy),$(pxz),$(pyz),$(pe),$(ke),$(etotal),$(evdwl),$(ecoul),$(epair),$(ebond),$(eangle),$(edihed),$(eimp),$(emol),$(etail),$(enthalpy),$(vol)" 					append ${filename}_out.csv screen no title "step,temp,press,density,pxx,pyy,pzz,pxy,pxz,pyz,pe,ke,etotal,evdwl,ecoul,epair,ebond,eangle,edihed,eimp,emol,etail,enthalpy,vol"
fix 				thermo_print all print 10 "$(step),$(temp),$(press),$(density),$(pxx),$(pyy),$(pzz),$(pxy),$(pxz),$(pyz),$(pe),$(ke),$(etotal),$(evdwl),$(ecoul),$(epair),$(ebond),$(eangle),$(edihed),$(eimp),$(emol),$(etail),$(enthalpy),$(vol)" 					append ${filename}_out.csv screen no title "step,temp,press,density,pxx,pyy,pzz,pxy,pxz,pyz,pe,ke,etotal,evdwl,ecoul,epair,ebond,eangle,edihed,eimp,emol,etail,enthalpy,vol"
fix 				thermo_print all print 10 "$(step),$(temp),$(press),$(density),$(pxx),$(pyy),$(pzz),$(pxy),$(pxz),$(pyz),$(pe),$(ke),$(etotal),$(evdwl),$(ecoul),$(epair),$(ebond),$(eangle),$(edihed),$(eimp),$(emol),$(etail),$(enthalpy),$(vol)" 					append ./Step0/S0_Min_Example_out.csv screen no title "step,temp,press,density,pxx,pyy,pzz,pxy,pxz,pyz,pe,ke,etotal,evdwl,ecoul,epair,ebond,eangle,edihed,eimp,emol,etail,enthalpy,vol"
dump            	dump1 all custom ${nDump} ${filename}_w.lammpstrj id mol type x y z mass q
dump            	dump1 all custom 10 ${filename}_w.lammpstrj id mol type x y z mass q
dump            	dump1 all custom 10 ./Step0/S0_Min_Example_w.lammpstrj id mol type x y z mass q
dump            	dump2 all custom ${nDump} ${filename}_u.lammpstrj id mol type xu yu zu mass q
dump            	dump2 all custom 10 ${filename}_u.lammpstrj id mol type xu yu zu mass q
dump            	dump2 all custom 10 ./Step0/S0_Min_Example_u.lammpstrj id mol type xu yu zu mass q
dump_modify     	dump1 sort id
dump_modify     	dump2 sort id
# No progress restarts
minimize        	1.0e-16 1.06e-6 100000 500000
Neighbor list info ...
  update every 1 steps, delay 0 steps, check yes
  max neighbors/atom: 2000, page size: 100000
  master list distance cutoff = 14
  ghost atom cutoff = 14
  binsize = 7, bins = 8 8 8
  1 neighbor lists, perpetual/occasional/extra = 1 0 0
  (1) pair lj/cut/coul/cut/kk, perpetual
      attributes: half, newton on, kokkos_device
      pair build: half/bin/kk/device
      stencil: half/bin/3d
      bin: kk/device
Per MPI rank memory allocation (min/avg/max) = 4.916 | 5.257 | 5.458 Mbytes
Step Temp E_pair E_mol TotEng Press 
       0          234    246799.05    2066.4072    252350.22    487206.37 
      10          234   -1155.7303    928.09851    3257.1259    6863.5005 
      20          234   -1641.0272    493.06243     2336.793    2094.1007 
      29          234   -1938.1572    397.35643     1943.957    1239.7324 
Loop time of 0.214472 on 56 procs for 29 steps with 4997 atoms

98.8% CPU use with 56 MPI tasks x 1 OpenMP threads

Minimization stats:
  Stopping criterion = linesearch alpha is zero
  Energy initial, next-to-last, final = 
      248865.459823107  -1540.80073956806  -1540.80073956806
  Force two-norm initial, final = 5032097.8 166.41532
  Force max component initial, final = 3075794.7 33.765406
  Final line search alpha, max atom move = 2.5512082e-13 8.6142582e-12
  Iterations, force evaluations = 29 143

MPI task timing breakdown:
Section |  min time  |  avg time  |  max time  |%varavg| %total
---------------------------------------------------------------
Pair    | 0.0046258  | 0.038125   | 0.10965    |  11.9 | 17.78
Bond    | 0.0026454  | 0.006744   | 0.014039   |   3.4 |  3.14
Neigh   | 0.00094695 | 0.00202    | 0.002091   |   0.5 |  0.94
Comm    | 0.016674   | 0.092061   | 0.13431    |   8.6 | 42.92
Output  | 0.064806   | 0.064807   | 0.064819   |   0.0 | 30.22
Modify  | 0          | 0          | 0          |   0.0 |  0.00
Other   |            | 0.01071    |            |       |  5.00

Nlocal:        89.2321 ave         180 max          36 min
Histogram: 8 6 12 7 8 8 1 1 2 3
Nghost:        2720.82 ave        3008 max        2249 min
Histogram: 2 0 2 6 7 7 10 5 13 4
Neighs:        19550.8 ave       52538 max        3111 min
Histogram: 5 13 14 7 5 6 1 1 3 1

Total # of neighbors = 1094844
Ave neighs/atom = 219.10026
Ave special neighs/atom = 8.7368421
Neighbor list builds = 1
Dangerous builds = 0
undump          	dump1
undump          	dump2
# No ensemble unfix
write_restart   	${filename}.restart
write_restart   	./Step0/S0_Min_Example.restart
System init for write_restart ...
write_data			${filename}.data
write_data			./Step0/S0_Min_Example.data
System init for write_data ...
Total wall time: 0:00:00
